ID,Type,From,To,Amount,Txn,ether,USD,date
2238,Sold,0x62bdc6,0xa6e2e9,"13Ξ ($46,099)","May 18, 2021",13,46099,2021-05-18
2238,Sold,0xc11192,0x42f3f7,"19.75Ξ ($69,751)","May 07, 2021",19.75,69751,2021-05-07
1190,Sold,0xcf74e4,0x43fb99,400Ξ ($1.38M),"May 18, 2021",400,1380000,2021-05-18
8524,Sold,4281380,4606356,"26.50Ξ ($88,600)","May 18, 2021",26.5,88600,2021-05-18
8524,Sold,755965,13812128,"28Ξ ($59,660)","Apr 20, 2021",28,59660,2021-04-20
3532,Sold,quantbik…,fazebank…,"14.69Ξ ($47,851)","May 18, 2021",14.69,47851,2021-05-18
6635,Sold,957165,15437938,"17.99Ξ ($60,992)","May 17, 2021",17.99,60992,2021-05-17
6635,Sold,9119710,957165,"20Ξ ($78,267)","May 10, 2021",20,78267,2021-05-10
0853,Sold,quantbik…,0x3c2b4b,"15.50Ξ ($52,863)","May 17, 2021",15.5,52863,2021-05-17
0853,Sold,0x163ee0,quantbik…,"14Ξ ($47,045)","May 16, 2021",14,47045,2021-05-16
6505,Sold,0xf2907a,10688461,"38Ξ ($129,143)","May 17, 2021",38,129143,2021-05-17
6505,Sold,0x00653d,571999,"33Ξ ($111,223)","May 04, 2021",33,111223,2021-05-04
8213,Sold,sighduck…,sartoshi…,"13.50Ξ ($44,104)","May 17, 2021",13.5,44104,2021-05-17
8213,Sold,TweetyPi…,sighduck…,"19Ξ ($65,253)","May 05, 2021",19,65253,2021-05-05
8213,Sold,0xa25803,TweetyPi…,"22Ξ ($69,824)","May 03, 2021",22,69824,2021-05-03
6056,Sold,0x0e9aed,1633948,"26Ξ ($85,691)","May 17, 2021",26,85691,2021-05-17
6056,Sold,0x94f67d,957165,"16Ξ ($61,927)","May 14, 2021",16,61927,2021-05-14
3257,Sold,0x42f3f7,0xcb1391,"13Ξ ($42,846)","May 17, 2021",13,42846,2021-05-17
4282,Sold,6811088,15374116,"20Ξ ($66,965)","May 17, 2021",20,66965,2021-05-17
5859,Sold,9119710,808103,"20Ξ ($65,532)","May 17, 2021",20,65532,2021-05-17
8740,Sold,point-gr…,0x4affe1,"15Ξ ($50,686)","May 17, 2021",15,50686,2021-05-17
8740,Sold,0x42f3f7,point-gr…,"13.60Ξ ($50,609)","May 13, 2021",13.6,50609,2021-05-13
8740,Sold,0x8f6b1e,wookie.e…,"19Ξ ($62,444)","May 04, 2021",19,62444,2021-05-04
1361,Sold,0x940a26,sartoshi…,"29.90Ξ ($105,145)","May 17, 2021",29.9,105145,2021-05-17
4359,Sold,9119710,3783217,"22Ξ ($78,557)","May 17, 2021",22,78557,2021-05-17
1370,Sold,5550452,11254910,"18Ξ ($64,274)","May 16, 2021",18,64274,2021-05-16
1370,Sold,3926171,5550452,"19Ξ ($78,472)","May 11, 2021",19,78472,2021-05-11
9012,Sold,0x163ee0,5858674,"18Ξ ($60,486)","May 16, 2021",18,60486,2021-05-16
9012,Sold,0xb5cae9,1457888,"27Ξ ($95,875)","May 07, 2021",27,95875,2021-05-07
2376,Sold,0x4affe1,0xb9afc8,"16.97Ξ ($60,695)","May 16, 2021",16.97,60695,2021-05-16
2376,Sold,0xe19380,0x4affe1,"16Ξ ($57,226)","May 16, 2021",16,57226,2021-05-16
2321,Sold,0xac33a5,0xdb2b36,"14.60Ξ ($53,439)","May 16, 2021",14.6,53439,2021-05-16
2321,Sold,renaissa…,0xac33a5,"12Ξ ($45,810)","May 13, 2021",12,45810,2021-05-13
2321,Sold,@whiz,renaissa…,"23.99Ξ ($59,130)","Apr 17, 2021",23.99,59130,2021-04-17
5618,Sold,9762429,16056278,"29Ξ ($116,083)","May 14, 2021",29,116083,2021-05-14
9378,Sold,0xf2907a,wookie.e…,"39Ξ ($155,497)","May 14, 2021",39,155497,2021-05-14
2464,Sold,9762429,9952039,"36Ξ ($140,278)","May 14, 2021",36,140278,2021-05-14
7508,Sold,0xc20c55,0x034b46,"29.90Ξ ($114,768)","May 14, 2021",29.9,114768,2021-05-14
7635,Sold,0x48d1f7,0x0b67a3,"15Ξ ($57,576)","May 14, 2021",15,57576,2021-05-14
4253,Sold,0x4ffe38,0xb155c5,"22.50Ξ ($86,121)","May 14, 2021",22.5,86121,2021-05-14
8029,Sold,sartoshi…,0xf3d10d,"14.98Ξ ($58,201)","May 14, 2021",14.98,58201,2021-05-14
8029,Sold,0xb34860,sartoshi…,"13Ξ ($49,926)","May 13, 2021",13,49926,2021-05-13
9023,Sold,7925926,15978765,"18.18Ξ ($70,634)","May 14, 2021",18.18,70634,2021-05-14
8573,Sold,0x538b5d,0xf71212,"14.50Ξ ($56,336)","May 14, 2021",14.5,56336,2021-05-14
8573,Sold,0x62bdc6,0x538b5d,"11.97Ξ ($45,970)","May 13, 2021",11.97,45970,2021-05-13
8573,Sold,0x56fc4b,0x62bdc6,"21Ξ ($57,483)","Apr 28, 2021",21,57483,2021-04-28
3759,Sold,0x05e709,0x81c040,"14.99Ξ ($58,240)","May 14, 2021",14.99,58240,2021-05-14
1015,Sold,0x3634f3,ire.eth,"19.22Ξ ($71,990)","May 13, 2021",19.22,71990,2021-05-13
1015,Sold,anonymou…,0x3634f3,"35.98Ξ ($96,504)","Apr 28, 2021",35.98,96504,2021-04-28
1015,Sold,etekis,anonymou…,"35Ξ ($91,729)","Apr 22, 2021",35,91729,2021-04-22
5913,Sold,0xf3d10d,0x034b46,"49Ξ ($182,343)","May 13, 2021",49,182343,2021-05-13
7463,Sold,quantbik…,point-gr…,"14.45Ξ ($53,772)","May 13, 2021",14.45,53772,2021-05-13
3008,Sold,renaissa…,0x85e8eb,"17Ξ ($62,646)","May 13, 2021",17,62646,2021-05-13
3502,Sold,0x3be89b,2985333,"13Ξ ($47,906)","May 13, 2021",13,47906,2021-05-13
6514,Sold,0xa876cd,0x2d8d75,"12.88Ξ ($47,464)","May 13, 2021",12.88,47464,2021-05-13
4273,Sold,0x05e709,0x2d8d75,"13.99Ξ ($51,554)","May 13, 2021",13.99,51554,2021-05-13
6335,Sold,14783360,2985333,"13.70Ξ ($50,485)","May 13, 2021",13.7,50485,2021-05-13
7575,Sold,0x54b174,0x2d8d75,"13.50Ξ ($49,748)","May 13, 2021",13.5,49748,2021-05-13
7575,Sold,0x62bdc6,0x54b174,"13Ξ ($49,926)","May 13, 2021",13,49926,2021-05-13
3917,Sold,0x05e709,0x2d8d75,"14.99Ξ ($55,239)","May 13, 2021",14.99,55239,2021-05-13
1912,Sold,0x054f68,0x2d8d75,"14.50Ξ ($53,433)","May 13, 2021",14.5,53433,2021-05-13
1912,Sold,0x20d5a3,0x054f68,"21.70Ξ ($72,281)","May 04, 2021",21.7,72281,2021-05-04
4734,Sold,SenecaEt…,0x2d8d75,"14.95Ξ ($55,092)","May 13, 2021",14.95,55092,2021-05-13
5536,Sold,0xb34860,0x2d8d75,"12.50Ξ ($46,063)","May 13, 2021",12.5,46063,2021-05-13
9255,Sold,0x05e709,0x2d8d75,"14.49Ξ ($53,397)","May 13, 2021",14.49,53397,2021-05-13
8826,Sold,Deeze,0x2d8d75,"12.45Ξ ($45,879)","May 13, 2021",12.45,45879,2021-05-13
1673,Sold,point-gr…,0x2d8d75,"14.40Ξ ($53,065)","May 13, 2021",14.4,53065,2021-05-13
6933,Sold,3699717,8775915,"13Ξ ($46,910)","May 13, 2021",13,46910,2021-05-13
4794,Sold,0x3634f3,0x344f2b,"18Ξ ($68,809)","May 13, 2021",18,68809,2021-05-13
4794,Sold,0xdb2ba0,0x3634f3,"25Ξ ($101,667)","May 11, 2021",25,101667,2021-05-11
8237,Sold,0xd4442b,0x237685,"17Ξ ($63,924)","May 13, 2021",17,63924,2021-05-13
8237,Sold,0x97db27,0xd4442b,"22.50Ξ ($59,533)","Apr 27, 2021",22.5,59533,2021-04-27
8237,Sold,EliteCat…,0x97db27,"19.25Ξ ($46,795)","Apr 21, 2021",19.25,46795,2021-04-21
9332,Sold,0x4c9692,901568,"43Ξ ($161,691)","May 13, 2021",43,161691,2021-05-13
9332,Sold,0x062c54,5019282,"95Ξ ($337,083)","May 08, 2021",95,337083,2021-05-08
1704,Sold,0x131b2b,nftguild…,"17Ξ ($63,924)","May 13, 2021",17,63924,2021-05-13
0608,Sold,0xb10004,9399070,"45Ξ ($169,211)","May 13, 2021",45,169211,2021-05-13
0608,Sold,0x78b58e,11599876,"39.99Ξ ($93,826)","Apr 14, 2021",39.99,93826,2021-04-14
0608,Sold,0xfeeb2d,7910798,"35Ξ ($75,775)","Apr 13, 2021",35,75775,2021-04-13
9458,Sold,Kornelij…,0x60cd04,"13.99Ξ ($52,606)","May 13, 2021",13.99,52606,2021-05-13
0299,Sold,Deeze,0x0654ef,"12.77Ξ ($47,846)","May 13, 2021",12.77,47846,2021-05-13
6402,Sold,0x4c9692,valko.et…,"50Ξ ($187,339)","May 13, 2021",50,187339,2021-05-13
6402,Sold,0x062c54,0x4c9692,"85Ξ ($301,600)","May 08, 2021",85,301600,2021-05-08
5546,Sold,0x4c9692,0x8e7644,"33Ξ ($123,643)","May 13, 2021",33,123643,2021-05-13
9303,Sold,0xa469a5,wookie.e…,"12Ξ ($46,725)","May 13, 2021",12,46725,2021-05-13
5104,Sold,10774949,1633948,"12.50Ξ ($47,227)","May 13, 2021",12.5,47227,2021-05-13
1812,Sold,0xaaaba0,0x2da7e2,"21Ξ ($79,342)","May 13, 2021",21,79342,2021-05-13
6825,Sold,0x387405,antagoni…,"13.25Ξ ($50,582)","May 13, 2021",13.25,50582,2021-05-13
5667,Sold,0x387405,10993012,"13Ξ ($48,169)","May 13, 2021",13,48169,2021-05-13
7132,Sold,0x2f06ff,0x577ebc,"17Ξ ($63,729)","May 13, 2021",17,63729,2021-05-13
3496,Sold,0x3be89b,8719534,"17.07Ξ ($68,080)","May 13, 2021",17.07,68080,2021-05-13
6641,Sold,9119710,0xe4446d,"13.50Ξ ($53,917)","May 13, 2021",13.5,53917,2021-05-13
4960,Sold,0x0d7794,0xddcc62,"13.50Ξ ($53,165)","May 13, 2021",13.5,53165,2021-05-13
5997,Sold,9119710,willmati…,"14.50Ξ ($57,103)","May 13, 2021",14.5,57103,2021-05-13
7816,Sold,patata.e…,0x86f391,"17Ξ ($66,949)","May 13, 2021",17,66949,2021-05-13
6196,Sold,0x950ec3,0x0ecd8a,"17Ξ ($65,287)","May 13, 2021",17,65287,2021-05-13
3632,Sold,0xb34860,0x28e987,"14Ξ ($56,807)","May 12, 2021",14,56807,2021-05-12
1587,Sold,5019282,tonyherr…,"30Ξ ($122,076)","May 12, 2021",30,122076,2021-05-12
0512,Sold,4382224,5734076,"34.70Ξ ($141,201)","May 12, 2021",34.7,141201,2021-05-12
0512,Sold,16706349,4834302,"62.50Ξ ($182,317)","May 01, 2021",62.5,182317,2021-05-01
6217,Sold,0xf2907a,runhot99…,"25Ξ ($101,730)","May 12, 2021",25,101730,2021-05-12
7641,Sold,0x42de10,0x577ebc,"40Ξ ($162,768)","May 12, 2021",40,162768,2021-05-12
7641,Sold,VonMises,0x49c3fe,"95Ξ ($301,093)","May 03, 2021",95,301093,2021-05-03
2366,Sold,0x40f277,14222446,"24.90Ξ ($99,793)","May 12, 2021",24.9,99793,2021-05-12
2366,Sold,0x7a8d8f,4256375,"22.50Ξ ($88,035)","May 09, 2021",22.5,88035,2021-05-09
5193,Sold,3699717,1244261,"16.50Ξ ($67,727)","May 12, 2021",16.5,67727,2021-05-12
1878,Sold,0xf2907a,4455321,"88Ξ ($361,208)","May 12, 2021",88,361208,2021-05-12
1878,Sold,0xd7e7a0,752313,"28Ξ ($66,912)","Apr 14, 2021",28,66912,2021-04-14
8325,Sold,tappy.et…,0x023ef7,"35Ξ ($149,096)","May 12, 2021",35,149096,2021-05-12
5393,Sold,0x387405,wookie.e…,"14Ξ ($60,339)","May 12, 2021",14,60339,2021-05-12
1473,Sold,0x20f9dd,0x6c4aec,"15.60Ξ ($66,516)","May 12, 2021",15.6,66516,2021-05-12
4046,Sold,0xa37ed0,0x753b20,"16.94Ξ ($73,374)","May 12, 2021",16.94,73374,2021-05-12
7148,Sold,0x344f2b,tsz.eth,"24.24Ξ ($103,813)","May 12, 2021",24.24,103813,2021-05-12
7148,Sold,0xc5e672,0x344f2b,"21Ξ ($87,866)","May 12, 2021",21,87866,2021-05-12
7148,Sold,0x74be0a,0xc5e672,"22.50Ξ ($89,998)","May 10, 2021",22.5,89998,2021-05-10
7148,Sold,0x379133,0x74be0a,"21Ξ ($72,834)","May 05, 2021",21,72834,2021-05-05
9386,Sold,4915169,3428139,"17.45Ξ ($73,013)","May 12, 2021",17.45,73013,2021-05-12
9386,Sold,3926171,4915169,"16Ξ ($64,838)","May 11, 2021",16,64838,2021-05-11
5674,Sold,0x034b46,0x344f2b,"21.77Ξ ($91,088)","May 12, 2021",21.77,91088,2021-05-12
3273,Sold,Deeze,0x0a24f6,"17.99Ξ ($75,272)","May 12, 2021",17.99,75272,2021-05-12
2257,Sold,3926171,keyboard…,"17Ξ ($71,011)","May 12, 2021",17,71011,2021-05-12
4235,Sold,12192872,11682482,"32Ξ ($133,668)","May 12, 2021",32,133668,2021-05-12
7308,Sold,3926171,957165,"16.50Ξ ($68,923)","May 12, 2021",16.5,68923,2021-05-12
2126,Sold,quantbik…,0x43fb99,"17.50Ξ ($73,100)","May 12, 2021",17.5,73100,2021-05-12
2126,Sold,0xd57818,0x62bdc6,"23.88Ξ ($75,685)","May 03, 2021",23.88,75685,2021-05-03
1451,Sold,13074342,970122,"17Ξ ($71,011)","May 12, 2021",17,71011,2021-05-12
1451,Sold,7910798,13074342,"26Ξ ($82,404)","May 03, 2021",26,82404,2021-05-03
1451,Sold,7310068,7910798,"19.50Ξ ($45,353)","Apr 21, 2021",19.5,45353,2021-04-21
2806,Sold,11411939,8338175,"26.99Ξ ($112,556)","May 12, 2021",26.99,112556,2021-05-12
2806,Sold,1700403,11411939,"25Ξ ($69,277)","Apr 29, 2021",25,69277,2021-04-29
1588,Sold,13162917,8338175,"22.50Ξ ($93,832)","May 12, 2021",22.5,93832,2021-05-12
5872,Sold,9119710,8338175,"16Ξ ($66,269)","May 12, 2021",16,66269,2021-05-12
3708,Sold,quantbik…,0x7f3aff,"16.66Ξ ($69,003)","May 12, 2021",16.66,69003,2021-05-12
8814,Sold,3926171,8338175,"17.50Ξ ($72,482)","May 12, 2021",17.5,72482,2021-05-12
2774,Sold,3926171,8338175,"18Ξ ($74,553)","May 12, 2021",18,74553,2021-05-12
2036,Sold,0x4e2a48,0x7f3aff,"17.99Ξ ($74,511)","May 12, 2021",17.99,74511,2021-05-12
2036,Sold,0x62bdc6,0x4e2a48,"19.49Ξ ($44,991)","Apr 25, 2021",19.49,44991,2021-04-25
3194,Sold,957165,8955605,"30.99Ξ ($127,991)","May 11, 2021",30.99,127991,2021-05-11
3194,Sold,12743405,957165,"30Ξ ($68,466)","Apr 13, 2021",30,68466,2021-04-13
2506,Sold,0x0b8f4c,14054765,"20.50Ξ ($83,367)","May 11, 2021",20.5,83367,2021-05-11
5202,Sold,0x3be89b,wookie.e…,"16.60Ξ ($67,270)","May 11, 2021",16.6,67270,2021-05-11
4914,Sold,3926171,4915169,"16Ξ ($64,838)","May 11, 2021",16,64838,2021-05-11
4391,Sold,wookie.e…,0x538b5d,"16Ξ ($64,838)","May 11, 2021",16,64838,2021-05-11
8686,Sold,0xdf612c,2324101,"88Ξ ($356,609)","May 11, 2021",88,356609,2021-05-11
7438,Sold,3926171,9061146,"17Ξ ($68,438)","May 11, 2021",17,68438,2021-05-11
2175,Sold,0x3be89b,psylinse…,"18.50Ξ ($74,477)","May 11, 2021",18.5,74477,2021-05-11
7136,Sold,0x6336fb,0x997bf8,"28.75Ξ ($116,954)","May 11, 2021",28.75,116954,2021-05-11
7136,Sold,0x1d337f,0x6336fb,"29.90Ξ ($66,659)","Apr 13, 2021",29.9,66659,2021-04-13
2493,Sold,3926171,runhot99…,"17Ξ ($67,435)","May 11, 2021",17,67435,2021-05-11
4090,Sold,3926171,6428511,"17.50Ξ ($69,418)","May 11, 2021",17.5,69418,2021-05-11
1735,Sold,3926171,5734076,"17.50Ξ ($69,526)","May 11, 2021",17.5,69526,2021-05-11
3420,Sold,3926171,5734076,"17.50Ξ ($69,526)","May 11, 2021",17.5,69526,2021-05-11
3527,Sold,3699717,5734076,"17.50Ξ ($69,526)","May 11, 2021",17.5,69526,2021-05-11
2348,Sold,quantbik…,0x577ebc,"16.90Ξ ($67,142)","May 11, 2021",16.9,67142,2021-05-11
4854,Sold,0xc5b066,0x577ebc,"16.50Ξ ($65,583)","May 11, 2021",16.5,65583,2021-05-11
5611,Sold,3926171,5734076,"17Ξ ($67,571)","May 11, 2021",17,67571,2021-05-11
4948,Sold,quantbik…,0x577ebc,"16.66Ξ ($66,219)","May 11, 2021",16.66,66219,2021-05-11
4948,Sold,Ravachol,wookie.e…,"20Ξ ($68,832)","May 06, 2021",20,68832,2021-05-06
3390,Sold,3926171,omri.tin…,"17.50Ξ ($69,558)","May 11, 2021",17.5,69558,2021-05-11
4521,Sold,3926171,5734076,"17Ξ ($67,571)","May 11, 2021",17,67571,2021-05-11
7281,Sold,quantbik…,0x577ebc,"16.66Ξ ($67,336)","May 11, 2021",16.66,67336,2021-05-11
7281,Sold,0xb9afc8,0x41eff4,"24.80Ξ ($78,601)","May 03, 2021",24.8,78601,2021-05-03
5418,Sold,3926171,15274875,"18Ξ ($72,752)","May 11, 2021",18,72752,2021-05-11
7104,Sold,0x3be89b,5734076,"17Ξ ($68,710)","May 11, 2021",17,68710,2021-05-11
1967,Sold,0xf36972,0xb70c1a,"70Ξ ($282,923)","May 11, 2021",70,282923,2021-05-11
9161,Sold,3926171,daddykal…,"17Ξ ($68,710)","May 11, 2021",17,68710,2021-05-11
1813,Sold,3926171,5734076,"17Ξ ($68,710)","May 11, 2021",17,68710,2021-05-11
3604,Sold,3926171,5734076,"17Ξ ($68,249)","May 11, 2021",17,68249,2021-05-11
5729,Sold,3926171,5311441,"18Ξ ($72,264)","May 11, 2021",18,72264,2021-05-11
1890,Sold,quantbik…,0x367fd6,"16.90Ξ ($67,848)","May 11, 2021",16.9,67848,2021-05-11
6588,Sold,0x08c880,0x577ebc,"17.75Ξ ($69,430)","May 11, 2021",17.75,69430,2021-05-11
6588,Sold,0x0e9aed,0x08c880,"22.99Ξ ($67,577)","May 02, 2021",22.99,67577,2021-05-02
4219,Sold,0xc5b066,0x577ebc,"17.60Ξ ($68,843)","May 11, 2021",17.6,68843,2021-05-11
4219,Sold,0x56fc4b,wookie.e…,"19.10Ξ ($68,207)","May 06, 2021",19.1,68207,2021-05-06
6401,Sold,0x7b5485,5734076,"16.98Ξ ($67,294)","May 11, 2021",16.98,67294,2021-05-11
5357,Sold,0x7fccd5,0x92c431,"18.70Ξ ($72,797)","May 11, 2021",18.7,72797,2021-05-11
6584,Sold,0xe8f119,0xb198dd,"16.75Ξ ($65,444)","May 11, 2021",16.75,65444,2021-05-11
6584,Sold,0x4f63c2,0xe8f119,"21.98Ξ ($64,790)","May 02, 2021",21.98,64790,2021-05-02
6584,Sold,0x379133,0x62bdc6,"18Ξ ($44,792)","Apr 15, 2021",18,44792,2021-04-15
3334,Sold,0x009988,0xb565d5,"19Ξ ($76,609)","May 10, 2021",19,76609,2021-05-10
3334,Sold,NFTinTin,0xb08be7,"29.49Ξ ($104,380)","May 08, 2021",29.49,104380,2021-05-08
9952,Sold,0x82a046,runhot99…,"67.50Ξ ($260,075)","May 10, 2021",67.5,260075,2021-05-10
6293,Sold,0x18ee9c,shilpixe…,"20Ξ ($77,059)","May 10, 2021",20,77059,2021-05-10
6293,Sold,0x19f233,0x18ee9c,"24Ξ ($52,350)","Apr 18, 2021",24,52350,2021-04-18
9731,Sold,0xaaaba0,Ur84NKri…,"21.49Ξ ($82,800)","May 10, 2021",21.49,82800,2021-05-10
5930,Sold,TokenAng…,0x3c22d6,"25Ξ ($96,324)","May 10, 2021",25,96324,2021-05-10
4744,Sold,0x4affe1,0x54a54b,"18.99Ξ ($75,958)","May 10, 2021",18.99,75958,2021-05-10
4744,Sold,SenecaEt…,0x4affe1,"18Ξ ($73,959)","May 10, 2021",18,73959,2021-05-10
6353,Sold,39304,11921068,"20Ξ ($79,998)","May 10, 2021",20,79998,2021-05-10
6353,Sold,1538320,11570151,"29.50Ξ ($104,415)","May 08, 2021",29.5,104415,2021-05-08
7815,Sold,0xf3016b,6412761,"35Ξ ($144,776)","May 10, 2021",35,144776,2021-05-10
5383,Sold,13401139,15206237,"21.75Ξ ($90,841)","May 10, 2021",21.75,90841,2021-05-10
9764,Sold,0x0ecd8a,0xe9581f,"43Ξ ($179,595)","May 10, 2021",43,179595,2021-05-10
9764,Sold,tappy.et…,0x0ecd8a,"42Ξ ($123,803)","May 02, 2021",42,123803,2021-05-02
8897,Sold,0x23b50b,0xba19ba,"21.50Ξ ($89,662)","May 10, 2021",21.5,89662,2021-05-10
8075,Sold,NFTinTin,0x7dde66,"37Ξ ($150,069)","May 10, 2021",37,150069,2021-05-10
5639,Sold,0x20f9dd,0xbb1ec7,"43.60Ξ ($176,838)","May 10, 2021",43.6,176838,2021-05-10
4461,Sold,7293485,2139890,"28Ξ ($114,567)","May 10, 2021",28,114567,2021-05-10
3982,Sold,7293485,11996186,"31.50Ξ ($128,888)","May 10, 2021",31.5,128888,2021-05-10
3795,Sold,15896698,11996186,"62Ξ ($253,685)","May 10, 2021",62,253685,2021-05-10
3795,Sold,11844417,571999,"75Ξ ($178,154)","Apr 23, 2021",75,178154,2021-04-23
9089,Sold,0xf70961,0x0e9aed,"19.87Ξ ($80,398)","May 10, 2021",19.87,80398,2021-05-10
3441,Sold,0x4897d3,0x0a4071,"80Ξ ($323,698)","May 10, 2021",80,323698,2021-05-10
6546,Sold,0x0e9aed,0x321022,"22Ξ ($89,017)","May 10, 2021",22,89017,2021-05-10
6546,Sold,0x6f64db,0x0e9aed,"20Ξ ($77,870)","May 09, 2021",20,77870,2021-05-09
8548,Sold,0x18ee9c,anonymou…,"20.50Ξ ($80,983)","May 10, 2021",20.5,80983,2021-05-10
8548,Sold,0x6f4a2d,0x18ee9c,"22.22Ξ ($62,937)","May 01, 2021",22.22,62937,2021-05-01
8408,Sold,0x62bdc6,0xef352a,"18.99Ξ ($74,426)","May 10, 2021",18.99,74426,2021-05-10
9206,Sold,0x44a3cc,0x0d93bc,"26.50Ξ ($103,900)","May 09, 2021",26.5,103900,2021-05-09
9206,Sold,brotman.…,0x76fe8e,"22Ξ ($54,475)","Apr 22, 2021",22,54475,2021-04-22
6807,Sold,0x131b2b,0xf51d05,"46.50Ξ ($181,817)","May 09, 2021",46.5,181817,2021-05-09
6807,Sold,0x671f71,0x131b2b,"45Ξ ($109,908)","Apr 22, 2021",45,109908,2021-04-22
9744,Sold,0xece772,0xc9a58d,"20.00Ξ ($78,201)","May 09, 2021",20,78201,2021-05-09
6888,Sold,0xb73307,0x087173,"20.50Ξ ($80,156)","May 09, 2021",20.5,80156,2021-05-09
6888,Sold,AZonneve…,0xb73307,"27.91Ξ ($91,784)","May 04, 2021",27.91,91784,2021-05-04
6888,Sold,0xa25803,AZonneve…,"24Ξ ($61,705)","Apr 27, 2021",24,61705,2021-04-27
7349,Sold,0x7fc4ad,4915169,"18Ξ ($70,761)","May 09, 2021",18,70761,2021-05-09
7349,Sold,0x3731a5,8373421,"25Ξ ($89,276)","May 06, 2021",25,89276,2021-05-06
6043,Sold,6689278,12263111,"139.36Ξ ($547,845)","May 09, 2021",139.36,547845,2021-05-09
8389,Sold,0xa2dcba,0x20a6f2,"20.38Ξ ($78,235)","May 09, 2021",20.38,78235,2021-05-09
8389,Sold,0x4f63c2,0xa2dcba,"21.97Ξ ($57,098)","Apr 28, 2021",21.97,57098,2021-04-28
8198,Sold,3926171,2139890,"20.50Ξ ($78,684)","May 09, 2021",20.5,78684,2021-05-09
4630,Sold,0x83fdb6,0x519e4a,"35Ξ ($132,623)","May 09, 2021",35,132623,2021-05-09
5296,Sold,3699717,11609383,"19.50Ξ ($74,542)","May 09, 2021",19.5,74542,2021-05-09
6180,Sold,0x387405,6583658,"23.45Ξ ($89,642)","May 09, 2021",23.45,89642,2021-05-09
7161,Sold,3699717,6583658,"23Ξ ($87,922)","May 09, 2021",23,87922,2021-05-09
7029,Sold,3926171,15229387,"22Ξ ($86,526)","May 09, 2021",22,86526,2021-05-09
9436,Sold,0x087173,0xcacdf5,"23.50Ξ ($92,425)","May 09, 2021",23.5,92425,2021-05-09
9436,Sold,0x06dc1e,0x087173,"23.50Ξ ($92,412)","May 08, 2021",23.5,92412,2021-05-08
5039,Sold,0x009988,0xf19df7,"20Ξ ($79,484)","May 09, 2021",20,79484,2021-05-09
5039,Sold,0x1adc72,0xb08be7,"26Ξ ($92,027)","May 08, 2021",26,92027,2021-05-08
4148,Sold,0xbff231,0xe8831f,"29.99Ξ ($115,507)","May 09, 2021",29.99,115507,2021-05-09
4148,Sold,0xf36972,0xbff231,"27.50Ξ ($100,476)","May 08, 2021",27.5,100476,2021-05-08
5374,Sold,0x7f49d2,0x371b69,"21.70Ξ ($84,138)","May 09, 2021",21.7,84138,2021-05-09
5374,Sold,0xc5b066,0x7f49d2,"20.47Ξ ($50,334)","Apr 26, 2021",20.47,50334,2021-04-26
4951,Sold,0x62bdc6,cryptoke…,"18.75Ξ ($72,561)","May 09, 2021",18.75,72561,2021-05-09
4951,Sold,0x494508,0xcded7e,"22.05Ξ ($53,055)","Apr 17, 2021",22.05,53055,2021-04-17
4951,Sold,0x44da37,0x494508,"21Ξ ($51,609)","Apr 16, 2021",21,51609,2021-04-16
2672,Sold,whiterab…,anonymou…,"19.50Ξ ($75,464)","May 09, 2021",19.5,75464,2021-05-09
2669,Sold,whiterab…,anonymou…,"18.90Ξ ($73,142)","May 09, 2021",18.9,73142,2021-05-09
9143,Sold,0x62bdc6,anonymou…,"18.49Ξ ($71,555)","May 09, 2021",18.49,71555,2021-05-09
9143,Sold,0x0e9aed,brazy.et…,"23.99Ξ ($76,034)","May 03, 2021",23.99,76034,2021-05-03
9143,Sold,0x3fcac5,0x0e9aed,"22Ξ ($47,615)","Apr 13, 2021",22,47615,2021-04-13
4175,Sold,0xcc46f3,0xccf43d,"22.50Ξ ($87,439)","May 09, 2021",22.5,87439,2021-05-09
4175,Sold,Gmugr,0xcc46f3,"22.15Ξ ($54,471)","Apr 26, 2021",22.15,54471,2021-04-26
4175,Sold,0x62bdc6,Gmugr,"20.80Ξ ($47,146)","Apr 13, 2021",20.8,47146,2021-04-13
9508,Sold,metadive…,0x0d93bc,"28Ξ ($110,107)","May 08, 2021",28,110107,2021-05-08
9508,Sold,0xaea8e3,metadive…,"27.99Ξ ($88,712)","May 03, 2021",27.99,88712,2021-05-03
9508,Sold,0xe3bf86,0xaea8e3,"23.99Ξ ($65,668)","Apr 28, 2021",23.99,65668,2021-04-28
9508,Sold,0xf36972,0xe3bf86,"24.99Ξ ($58,297)","Apr 21, 2021",24.99,58297,2021-04-21
9839,Sold,magicdhz…,sillytun…,"39.69Ξ ($156,077)","May 08, 2021",39.69,156077,2021-05-08
4130,Sold,0x5fd36a,0x415424,"26Ξ ($100,851)","May 08, 2021",26,100851,2021-05-08
1908,Sold,0x18ee9c,0xa3cd11,"29Ξ ($110,995)","May 08, 2021",29,110995,2021-05-08
8015,Sold,antagoni…,0x40f277,"28.75Ξ ($109,571)","May 08, 2021",28.75,109571,2021-05-08
4162,Sold,0xce9000,0x537dc8,"22Ξ ($83,846)","May 08, 2021",22,83846,2021-05-08
0382,Sold,0x6611fe,11996186,"130Ξ ($495,197)","May 08, 2021",130,495197,2021-05-08
9547,Sold,0xd311db,215878,"27Ξ ($99,199)","May 08, 2021",27,99199,2021-05-08
8653,Sold,16671152,2220795,"21Ξ ($74,513)","May 08, 2021",21,74513,2021-05-08
7242,Sold,422151,11570151,"29.89Ξ ($105,796)","May 08, 2021",29.89,105796,2021-05-08
2540,Sold,TokenAng…,0x052564,"125Ξ ($442,438)","May 08, 2021",125,442438,2021-05-08
2645,Sold,🤹🏻‍♂.e…,0x42de10,"42Ξ ($149,760)","May 08, 2021",42,149760,2021-05-08
8725,Sold,13401139,199077,"38Ξ ($135,577)","May 08, 2021",38,135577,2021-05-08
1030,Sold,0x0b88fd,0x1e243e,"24Ξ ($84,838)","May 08, 2021",24,84838,2021-05-08
1030,Sold,0xff2854,0x0b88fd,"22.98Ξ ($67,548)","May 02, 2021",22.98,67548,2021-05-02
6068,Sold,daddykal…,AZonneve…,"20.69Ξ ($72,998)","May 08, 2021",20.69,72998,2021-05-08
6068,Sold,Hans,daddykal…,"24Ξ ($66,505)","Apr 29, 2021",24,66505,2021-04-29
2835,Sold,0xb4a8bf,0x0e9aed,"23Ξ ($81,256)","May 08, 2021",23,81256,2021-05-08
9602,Sold,10635491,11913961,"19.99Ξ ($69,746)","May 08, 2021",19.99,69746,2021-05-08
0342,Sold,barthazi…,0x1424d2,"20.50Ξ ($71,249)","May 07, 2021",20.5,71249,2021-05-07
8456,Sold,0x1424d2,0x83d66b,"22.94Ξ ($79,730)","May 07, 2021",22.94,79730,2021-05-07
4133,Sold,0x062c54,12263111,"55Ξ ($192,134)","May 07, 2021",55,192134,2021-05-07
5140,Sold,0x5e1b38,0xb63c13,"27Ξ ($95,027)","May 07, 2021",27,95027,2021-05-07
6928,Sold,0xd94be5,14491129,"25.75Ξ ($90,627)","May 07, 2021",25.75,90627,2021-05-07
5840,Sold,0x4affe1,0x0e9aed,"19.49Ξ ($69,103)","May 07, 2021",19.49,69103,2021-05-07
5840,Sold,DB,0x4affe1,"18Ξ ($63,216)","May 07, 2021",18,63216,2021-05-07
9210,Sold,1355393,11844417,"21Ξ ($73,507)","May 07, 2021",21,73507,2021-05-07
6830,Sold,575616,10238050,"19.94Ξ ($69,011)","May 07, 2021",19.94,69011,2021-05-07
6830,Sold,6448205,575616,"21.99Ξ ($64,819)","May 02, 2021",21.99,64819,2021-05-02
1010,Sold,9485902,8719534,"50Ξ ($173,045)","May 07, 2021",50,173045,2021-05-07
1622,Sold,3926171,1794692,"21.50Ξ ($74,295)","May 07, 2021",21.5,74295,2021-05-07
3671,Sold,brianx.e…,0x8b1083,"26Ξ ($89,600)","May 07, 2021",26,89600,2021-05-07
0497,Sold,0xa2dcba,0x0d82eb,"19.89Ξ ($68,543)","May 07, 2021",19.89,68543,2021-05-07
0497,Sold,brianx.e…,0xa2dcba,"19.50Ξ ($43,916)","Apr 20, 2021",19.5,43916,2021-04-20
0447,Sold,0xa6e59b,tonyherr…,"20.50Ξ ($70,476)","May 07, 2021",20.5,70476,2021-05-07
0447,Sold,punk5974…,0xa6e59b,"19.50Ξ ($45,366)","Apr 26, 2021",19.5,45366,2021-04-26
8577,Sold,0x4c9692,0x415424,"47.50Ξ ($168,080)","May 06, 2021",47.5,168080,2021-05-06
8577,Sold,0x8ee483,0x4c9692,"50Ξ ($107,644)","Apr 18, 2021",50,107644,2021-04-18
1676,Sold,0x0ec5b4,12973463,"19.50Ξ ($68,514)","May 06, 2021",19.5,68514,2021-05-06
7206,Sold,1471195,0xb9d94a,"33Ξ ($114,256)","May 06, 2021",33,114256,2021-05-06
9042,Sold,cryptosa…,0x0e9aed,"20.98Ξ ($74,992)","May 06, 2021",20.98,74992,2021-05-06
4298,Sold,7293485,11996186,"38Ξ ($135,829)","May 06, 2021",38,135829,2021-05-06
4584,Sold,0xa6e2e9,5836712,"22.97Ξ ($81,642)","May 06, 2021",22.97,81642,2021-05-06
4711,Sold,🤹🏻‍♂.e…,0xf8703a,"20.70Ξ ($73,921)","May 06, 2021",20.7,73921,2021-05-06
6550,Sold,0x7c2b65,0x7e152b,"23.49Ξ ($83,884)","May 06, 2021",23.49,83884,2021-05-06
6550,Sold,0xfc2a61,0x7c2b65,"23.50Ξ ($74,563)","May 03, 2021",23.5,74563,2021-05-03
7332,Sold,3926171,8248934,"25Ξ ($86,707)","May 06, 2021",25,86707,2021-05-06
6833,Sold,3699717,6583658,"20.50Ξ ($71,454)","May 06, 2021",20.5,71454,2021-05-06
4474,Sold,196085,16105941,"22Ξ ($76,682)","May 06, 2021",22,76682,2021-05-06
4198,Sold,15420373,0xa37ed0,"21Ξ ($73,591)","May 06, 2021",21,73591,2021-05-06
5063,Sold,0xbff231,0xa06bd7,"18.88Ξ ($65,026)","May 06, 2021",18.88,65026,2021-05-06
5063,Sold,0x464994,0xbff231,"18Ξ ($62,457)","May 06, 2021",18,62457,2021-05-06
5063,Sold,0x6611fe,0x464994,"20.75Ξ ($51,296)","Apr 17, 2021",20.75,51296,2021-04-17
4441,Sold,0x46fa5d,0x743b87,"144.41Ξ ($493,690)","May 06, 2021",144.41,493690,2021-05-06
6748,Sold,0x0873fc,wookie.e…,"23.50Ξ ($80,962)","May 06, 2021",23.5,80962,2021-05-06
4458,Sold,0xac33a5,0x464994,"27.50Ξ ($95,421)","May 06, 2021",27.5,95421,2021-05-06
4458,Sold,0xf3d10d,0xac33a5,"24Ξ ($70,744)","May 02, 2021",24,70744,2021-05-02
1737,Sold,0xbff231,wookie.e…,"37.50Ξ ($130,293)","May 06, 2021",37.5,130293,2021-05-06
1737,Sold,0x0b7ab9,0xbff231,"36Ξ ($77,852)","Apr 13, 2021",36,77852,2021-04-13
4466,Sold,0xacaa0a,11570151,"25.88Ξ ($89,476)","May 06, 2021",25.88,89476,2021-05-06
8828,Sold,0xb50ac7,anonymou…,"55Ξ ($190,408)","May 05, 2021",55,190408,2021-05-05
5848,Sold,11079399,553331,"24Ξ ($83,239)","May 05, 2021",24,83239,2021-05-05
4950,Sold,0x62bdc6,0x27c79a,"19Ξ ($64,961)","May 05, 2021",19,64961,2021-05-05
7830,Sold,anonymou…,0x940fec,"25.25Ξ ($84,464)","May 05, 2021",25.25,84464,2021-05-05
3310,Sold,0x27c79a,9703404,"31Ξ ($103,782)","May 05, 2021",31,103782,2021-05-05
5480,Sold,redlione…,0x940fec,"26.99Ξ ($90,357)","May 05, 2021",26.99,90357,2021-05-05
3508,Sold,0xa38920,9703404,"32Ξ ($107,130)","May 05, 2021",32,107130,2021-05-05
3508,Sold,0x4e2a48,10717472,"24.48Ξ ($81,947)","May 05, 2021",24.48,81947,2021-05-05
1205,Sold,0x67edd0,0x940fec,"28Ξ ($93,739)","May 05, 2021",28,93739,2021-05-05
2599,Sold,SenecaEt…,0xdddc07,"20.75Ξ ($69,467)","May 05, 2021",20.75,69467,2021-05-05
3129,Sold,Pranksy,alphab.e…,"32.50Ξ ($109,427)","May 05, 2021",32.5,109427,2021-05-05
3129,Sold,0xfba169,Pranksy,"30Ξ ($101,009)","May 05, 2021",30,101009,2021-05-05
3197,Sold,11354535,7910798,"80Ξ ($267,802)","May 05, 2021",80,267802,2021-05-05
1271,Sold,2671661,957165,"87Ξ ($282,545)","May 05, 2021",87,282545,2021-05-05
5486,Sold,0xf2907a,11844417,"100Ξ ($324,764)","May 05, 2021",100,324764,2021-05-05
5609,Sold,10937065,15584009,"23.97Ξ ($80,417)","May 05, 2021",23.97,80417,2021-05-05
4619,Sold,0xcffc33,957165,"125Ξ ($419,362)","May 05, 2021",125,419362,2021-05-05
7251,Sold,0x8f6b1e,15023858,"19.50Ξ ($65,421)","May 05, 2021",19.5,65421,2021-05-05
9951,Sold,13630515,11844417,"62Ξ ($204,285)","May 05, 2021",62,204285,2021-05-05
9763,Sold,0x6efbb6,11996186,"30Ξ ($98,848)","May 05, 2021",30,98848,2021-05-05
5416,Sold,0x609630,tonyherr…,"20Ξ ($65,898)","May 05, 2021",20,65898,2021-05-05
5416,Sold,0x267e95,0x609630,"21.49Ξ ($52,097)","Apr 15, 2021",21.49,52097,2021-04-15
5416,Sold,0x62bdc6,0x267e95,"19.99Ξ ($46,906)","Apr 14, 2021",19.99,46906,2021-04-14
8634,Sold,0x983ace,12930485,"29Ξ ($95,747)","May 05, 2021",29,95747,2021-05-05
8634,Sold,0x889233,9976526,"25.50Ξ ($55,208)","Apr 13, 2021",25.5,55208,2021-04-13
1882,Sold,14693721,9453401,"30Ξ ($98,596)","May 04, 2021",30,98596,2021-05-04
7018,Sold,shilpixe…,0x18ee9c,"59Ξ ($193,905)","May 04, 2021",59,193905,2021-05-04
2626,Sold,Deeze,shilpixe…,"50Ξ ($164,327)","May 04, 2021",50,164327,2021-05-04
8682,Sold,0x71ecad,0xddcd25,"27Ξ ($91,133)","May 04, 2021",27,91133,2021-05-04
8682,Sold,0x0ec348,0x71ecad,"25.52Ξ ($59,434)","Apr 14, 2021",25.52,59434,2021-04-14
2108,Sold,0x436a4a,2442329,"20Ξ ($67,735)","May 04, 2021",20,67735,2021-05-04
0118,Sold,0x436a4a,9533918,"20.45Ξ ($69,259)","May 04, 2021",20.45,69259,2021-05-04
7748,Sold,14130067,957165,"92Ξ ($312,399)","May 04, 2021",92,312399,2021-05-04
9119,Sold,16105941,2442329,"32Ξ ($106,590)","May 04, 2021",32,106590,2021-05-04
9119,Sold,5734076,16105941,"22Ξ ($55,927)","Apr 16, 2021",22,55927,2021-04-16
9686,Sold,0x2044f8,0xd94be5,"25Ξ ($80,272)","May 04, 2021",25,80272,2021-05-04
5612,Sold,0xcd2e96,0xce7a9f,"21.75Ξ ($69,836)","May 04, 2021",21.75,69836,2021-05-04
5612,Sold,0xe8f119,0xcd2e96,"23.75Ξ ($69,479)","May 01, 2021",23.75,69479,2021-05-01
5612,Sold,0x62bdc6,0xe8f119,"22.46Ξ ($48,068)","Apr 13, 2021",22.46,48068,2021-04-13
4992,Sold,14130067,957165,"61.30Ξ ($196,826)","May 04, 2021",61.3,196826,2021-05-04
1705,Sold,7310068,bneiluj.…,"21Ξ ($67,428)","May 04, 2021",21,67428,2021-05-04
6379,Sold,wookie.e…,0xe85740,"20.99Ξ ($68,591)","May 04, 2021",20.99,68591,2021-05-04
2004,Sold,4399786,5469686,"21Ξ ($69,886)","May 04, 2021",21,69886,2021-05-04
5820,Sold,AZonneve…,0x0e9aed,"25.95Ξ ($89,282)","May 04, 2021",25.95,89282,2021-05-04
3832,Sold,Kataster…,mabot.et…,"25.75Ξ ($89,453)","May 04, 2021",25.75,89453,2021-05-04
6843,Sold,4399786,AZonneve…,"21.50Ξ ($74,689)","May 04, 2021",21.5,74689,2021-05-04
1995,Sold,15693454,2025467,"27Ξ ($93,795)","May 04, 2021",27,93795,2021-05-04
3553,Sold,redlione…,wookie.e…,"20.99Ξ ($72,917)","May 04, 2021",20.99,72917,2021-05-04
3553,Sold,0xbac42c,wookie.e…,"20.50Ξ ($49,904)","Apr 26, 2021",20.5,49904,2021-04-26
9022,Sold,0xa06bd7,0x62bdc6,"20.94Ξ ($72,743)","May 04, 2021",20.94,72743,2021-05-04
9022,Sold,0x3e4399,0xa06bd7,"21.88Ξ ($71,328)","May 03, 2021",21.88,71328,2021-05-03
9022,Sold,0xdfce59,0x3e4399,"24.88Ξ ($78,855)","May 03, 2021",24.88,78855,2021-05-03
3226,Sold,0xe53ef2,Deeze,"20.65Ξ ($70,999)","May 04, 2021",20.65,70999,2021-05-04
3226,Sold,chints,0xe53ef2,"19.50Ξ ($47,423)","Apr 17, 2021",19.5,47423,2021-04-17
6506,Sold,0xd41d35,0x2978f0,"21Ξ ($72,202)","May 04, 2021",21,72202,2021-05-04
2870,Sold,0x6ef237,0x59d2bc,"21Ξ ($72,202)","May 04, 2021",21,72202,2021-05-04
2870,Sold,antagoni…,0x6ef237,"19.99Ξ ($45,893)","Apr 23, 2021",19.99,45893,2021-04-23
2870,Sold,0x62bdc6,antagoni…,"19.49Ξ ($48,136)","Apr 15, 2021",19.49,48136,2021-04-15
4195,Sold,0x6ef237,wookie.e…,"21Ξ ($71,863)","May 04, 2021",21,71863,2021-05-04
4195,Sold,0xa2dcba,0x6ef237,"20.90Ξ ($48,657)","Apr 23, 2021",20.9,48657,2021-04-23
8444,Sold,0x2978f0,wookie.e…,"20.59Ξ ($70,460)","May 04, 2021",20.59,70460,2021-05-04
8444,Sold,0xa45138,0x2978f0,"20.95Ξ ($70,097)","May 04, 2021",20.95,70097,2021-05-04
6493,Sold,0x967ee5,0x641fb9,"24Ξ ($80,633)","May 04, 2021",24,80633,2021-05-04
6493,Sold,0x4affe1,0x967ee5,"25.75Ξ ($86,158)","May 04, 2021",25.75,86158,2021-05-04
2542,Sold,2717936,12955750,"20.69Ξ ($69,227)","May 04, 2021",20.69,69227,2021-05-04
2542,Sold,4774681,2717936,"21Ξ ($49,123)","Apr 14, 2021",21,49123,2021-04-14
8956,Sold,7270967,8266189,"21Ξ ($70,782)","May 04, 2021",21,70782,2021-05-04
8956,Sold,9483859,7270967,"20.21Ξ ($47,051)","Apr 23, 2021",20.21,47051,2021-04-23
9124,Sold,Alley,0x0e9aed,"23Ξ ($77,523)","May 04, 2021",23,77523,2021-05-04
4957,Sold,0x14ae81,0xbb1ec7,"26.95Ξ ($91,188)","May 04, 2021",26.95,91188,2021-05-04
0661,Sold,12196244,345726,"45Ξ ($152,262)","May 04, 2021",45,152262,2021-05-04
0661,Sold,15926777,12196244,"36Ξ ($85,563)","Apr 17, 2021",36,85563,2021-04-17
9335,Sold,0x39ba31,0x05467e,"26.26Ξ ($88,853)","May 04, 2021",26.26,88853,2021-05-04
9060,Sold,TokenAng…,0x05467e,"27.50Ξ ($93,049)","May 04, 2021",27.5,93049,2021-05-04
6361,Sold,16250839,345726,"27Ξ ($91,357)","May 04, 2021",27,91357,2021-05-04
6361,Sold,755965,16250839,"21Ξ ($52,778)","Apr 16, 2021",21,52778,2021-04-16
3846,Sold,0x4d0dc3,0x05467e,"25Ξ ($84,590)","May 04, 2021",25,84590,2021-05-04
3846,Sold,0xb33f6f,0x4d0dc3,"19.98Ξ ($44,748)","Apr 24, 2021",19.98,44748,2021-04-24
5936,Sold,0xaea8e3,0x05467e,"26.99Ξ ($91,323)","May 04, 2021",26.99,91323,2021-05-04
5936,Sold,0x4e9481,0xaea8e3,"22Ξ ($54,052)","Apr 15, 2021",22,54052,2021-04-15
5071,Sold,0xb7d53f,0x05467e,"27.75Ξ ($93,895)","May 04, 2021",27.75,93895,2021-05-04
5568,Sold,7293485,345726,"28Ξ ($94,741)","May 04, 2021",28,94741,2021-05-04
8937,Sold,0x78b58e,0x05467e,"26Ξ ($87,974)","May 04, 2021",26,87974,2021-05-04
8937,Sold,3van.eth,0x78b58e,"21Ξ ($48,520)","Apr 20, 2021",21,48520,2021-04-20
8937,Sold,0x769eec,3van.eth,"21.60Ξ ($46,764)","Apr 13, 2021",21.6,46764,2021-04-13
2235,Sold,0x0ebd1a,0x00653d,"20.50Ξ ($69,093)","May 04, 2021",20.5,69093,2021-05-04
7678,Sold,0x6ef237,0x86f391,"21Ξ ($68,282)","May 04, 2021",21,68282,2021-05-04
7678,Sold,0xda6645,0x6ef237,"20.70Ξ ($48,192)","Apr 23, 2021",20.7,48192,2021-04-23
8542,Sold,0xe85740,0x0d7794,"20.24Ξ ($65,811)","May 04, 2021",20.24,65811,2021-05-04
8542,Sold,0x37ad75,0xe85740,"18.69Ξ ($61,463)","May 04, 2021",18.69,61463,2021-05-04
8565,Sold,8247128,stazie,"25.75Ξ ($83,727)","May 04, 2021",25.75,83727,2021-05-04
8565,Sold,7293485,0x7dd758,"25.25Ξ ($79,660)","May 03, 2021",25.25,79660,2021-05-03
3526,Sold,4364806,7506703,"26.90Ξ ($87,466)","May 04, 2021",26.9,87466,2021-05-04
3526,Sold,3699717,4364806,"21.45Ξ ($63,790)","May 02, 2021",21.45,63790,2021-05-02
1765,Sold,15271881,13599745,"43Ξ ($139,815)","May 04, 2021",43,139815,2021-05-04
1765,Sold,5734076,15271881,"33.99Ξ ($86,471)","Apr 22, 2021",33.99,86471,2021-04-22
7987,Sold,0x5f5df4,sighduck…,"29.99Ξ ($98,799)","May 04, 2021",29.99,98799,2021-05-04
9849,Sold,0x0e9aed,4281380,"46.50Ξ ($152,918)","May 04, 2021",46.5,152918,2021-05-04
7401,Sold,0xd1e8b7,0x1bb772,"26.99Ξ ($88,758)","May 04, 2021",26.99,88758,2021-05-04
7814,Sold,0xb4bb41,8640107,"77Ξ ($259,989)","May 04, 2021",77,259989,2021-05-04
1944,Sold,0x5778e8,0xc66b8d,"30Ξ ($101,294)","May 04, 2021",30,101294,2021-05-04
5828,Sold,10682544,6527914,"25Ξ ($84,905)","May 03, 2021",25,84905,2021-05-03
9881,Sold,0xb70c1a,0xcf8401,"31.90Ξ ($108,339)","May 03, 2021",31.9,108339,2021-05-03
9881,Sold,0x0a4eaf…,0xb70c1a,"23.30Ξ ($58,768)","Apr 16, 2021",23.3,58768,2021-04-16
6765,Sold,3699717,9059630,"21.45Ξ ($71,689)","May 03, 2021",21.45,71689,2021-05-03
7080,Sold,0x62bdc6,0x9bf3bd,"20Ξ ($66,843)","May 03, 2021",20,66843,2021-05-03
3175,Sold,wookie.e…,0x3d0107,"20.10Ξ ($66,003)","May 03, 2021",20.1,66003,2021-05-03
3175,Sold,0x76b8a6,0xb3cd42,"25Ξ ($79,235)","May 03, 2021",25,79235,2021-05-03
4639,Sold,0x4c9692,beautifu…,"67Ξ ($220,011)","May 03, 2021",67,220011,2021-05-03
3901,Sold,0x6ef237,0x023ef7,"21Ξ ($68,959)","May 03, 2021",21,68959,2021-05-03
3901,Sold,owlman.e…,0x6ef237,"20.49Ξ ($47,703)","Apr 23, 2021",20.49,47703,2021-04-23
3901,Sold,0x0ec348,owlman.e…,"19.69Ξ ($47,540)","Apr 22, 2021",19.69,47540,2021-04-22
3834,Sold,0xaae8c5,0xd5bc69,"20.99Ξ ($69,176)","May 03, 2021",20.99,69176,2021-05-03
5647,Sold,0x78b58e,0xcf8401,"75Ξ ($247,174)","May 03, 2021",75,247174,2021-05-03
5647,Sold,wookie.e…,0x78b58e,"59Ξ ($143,111)","Apr 15, 2021",59,143111,2021-04-15
4726,Sold,0x4c9692,0xbb1ec7,"25Ξ ($82,391)","May 03, 2021",25,82391,2021-05-03
3299,Sold,10937065,12263111,"24.97Ξ ($82,292)","May 03, 2021",24.97,82292,2021-05-03
7435,Sold,0xcdd84c,point-gr…,"24.50Ξ ($80,743)","May 03, 2021",24.5,80743,2021-05-03
5343,Sold,12878075,15374116,"26.75Ξ ($88,159)","May 03, 2021",26.75,88159,2021-05-03
9142,Sold,0xaae8c5,0x62bdc6,"21.89Ξ ($72,581)","May 03, 2021",21.89,72581,2021-05-03
4167,Sold,brazy.et…,0xea9724,"38.50Ξ ($127,655)","May 03, 2021",38.5,127655,2021-05-03
4167,Sold,0x0a4eaf…,brazy.et…,"38Ξ ($95,845)","Apr 16, 2021",38,95845,2021-04-16
4447,Sold,0x8f8b47,0x648174,"23Ξ ($76,262)","May 03, 2021",23,76262,2021-05-03
4447,Sold,anonymou…,0x8f8b47,"21.75Ξ ($48,984)","Apr 20, 2021",21.75,48984,2021-04-20
5584,Sold,0xbc2a43,0x6f78c7,"26Ξ ($86,209)","May 03, 2021",26,86209,2021-05-03
8419,Sold,0x7a612b,12263111,"29.69Ξ ($98,444)","May 03, 2021",29.69,98444,2021-05-03
8419,Sold,0x6f4a2d,8020267,"23.50Ξ ($57,355)","Apr 16, 2021",23.5,57355,2021-04-16
8220,Sold,0xccc003,0x340dc2,"37.50Ξ ($124,339)","May 03, 2021",37.5,124339,2021-05-03
0548,Sold,0xaae8c5,0x577ebc,"21.89Ξ ($72,581)","May 03, 2021",21.89,72581,2021-05-03
0548,Sold,0x97db27,0x8be6ad,"22.99Ξ ($73,376)","May 03, 2021",22.99,73376,2021-05-03
0548,Sold,0x4c9692,0x97db27,"18.90Ξ ($45,944)","Apr 21, 2021",18.9,45944,2021-04-21
7123,Sold,Pranksy,marce.et…,"25Ξ ($82,893)","May 03, 2021",25,82893,2021-05-03
5891,Sold,shilpixe…,0xb70c1a,"51Ξ ($169,102)","May 03, 2021",51,169102,2021-05-03
6334,Sold,shilpixe…,0xb70c1a,"32Ξ ($106,103)","May 03, 2021",32,106103,2021-05-03
8604,Sold,0xba19ba,0x8bd9c4,"21Ξ ($69,630)","May 03, 2021",21,69630,2021-05-03
8604,Sold,0x828920,0x0e9aed,"21.99Ξ ($71,687)","May 03, 2021",21.99,71687,2021-05-03
8604,Sold,0xe98492,0x828920,"24.94Ξ ($79,045)","May 03, 2021",24.94,79045,2021-05-03
9324,Sold,0xc1d1d3,sexpunks…,"23Ξ ($76,185)","May 03, 2021",23,76185,2021-05-03
9324,Sold,0xbca6da,0xc1d1d3,"23.29Ξ ($73,815)","May 03, 2021",23.29,73815,2021-05-03
9324,Sold,0xb6be4d,0xbca6da,"23.49Ξ ($74,531)","May 03, 2021",23.49,74531,2021-05-03
3179,Sold,arad.eth,0xe9d034,"21.90Ξ ($72,541)","May 03, 2021",21.9,72541,2021-05-03
3985,Sold,0x967ee5,0xce9000,"23.99Ξ ($79,464)","May 03, 2021",23.99,79464,2021-05-03
0332,Sold,0xbae25a,0x13816f,"21.49Ξ ($71,183)","May 03, 2021",21.49,71183,2021-05-03
8564,Sold,0x4c9692,0x5deedc,"28Ξ ($92,747)","May 03, 2021",28,92747,2021-05-03
6508,Sold,15840437,6101191,"22.50Ξ ($74,529)","May 03, 2021",22.5,74529,2021-05-03
7893,Sold,0xce9000,0xe7a806,"23.50Ξ ($77,841)","May 03, 2021",23.5,77841,2021-05-03
6971,Sold,0x6f4a2d,0x42f3f7,"65Ξ ($215,305)","May 03, 2021",65,215305,2021-05-03
2989,Sold,owlman.e…,0xe98492,"22.99Ξ ($74,947)","May 03, 2021",22.99,74947,2021-05-03
2989,Sold,0x6feeb0,owlman.e…,"21.69Ξ ($57,390)","Apr 27, 2021",21.69,57390,2021-04-27
3565,Sold,0xba19ba,0x0b7059,"22Ξ ($71,720)","May 03, 2021",22,71720,2021-05-03
3565,Sold,0xe41691,0x00d29f,"24.20Ξ ($76,699)","May 03, 2021",24.2,76699,2021-05-03
5773,Sold,0xf2907a,0x023ef7,"21Ξ ($68,460)","May 03, 2021",21,68460,2021-05-03
5773,Sold,itsfine,0x08ba5f,"24.12Ξ ($76,446)","May 03, 2021",24.12,76446,2021-05-03
5773,Sold,0x79a1b0,itsfine,"23.95Ξ ($75,907)","May 03, 2021",23.95,75907,2021-05-03
5773,Sold,point-gr…,0x79a1b0,"23.39Ξ ($74,652)","May 03, 2021",23.39,74652,2021-05-03
5773,Sold,0xa6e2e9,point-gr…,"21.98Ξ ($57,973)","Apr 27, 2021",21.98,57973,2021-04-27
7406,Sold,0x0e9aed,0xb13c08,"25.99Ξ ($84,727)","May 03, 2021",25.99,84727,2021-05-03
7406,Sold,0xa7bd74,0x0e9aed,"23.99Ξ ($54,486)","Apr 13, 2021",23.99,54486,2021-04-13
0750,Sold,0xf305f9,runhot99…,"27Ξ ($88,019)","May 03, 2021",27,88019,2021-05-03
6012,Sold,0x50187b,957165,"34Ξ ($110,839)","May 03, 2021",34,110839,2021-05-03
5881,Sold,brazy.et…,0x0e9aed,"21.70Ξ ($70,742)","May 03, 2021",21.7,70742,2021-05-03
5881,Sold,Pranksy,brazy.et…,"21Ξ ($66,557)","May 03, 2021",21,66557,2021-05-03
5881,Sold,cryptoke…,Pranksy,"22.20Ξ ($70,854)","May 03, 2021",22.2,70854,2021-05-03
5881,Sold,wookie.e…,cryptoke…,"21.50Ξ ($63,446)","May 02, 2021",21.5,63446,2021-05-02
4209,Sold,0x983ace,0x139a09,"26.99Ξ ($87,987)","May 03, 2021",26.99,87987,2021-05-03
4209,Sold,0xbff231,0x983ace,"24.20Ξ ($52,377)","Apr 13, 2021",24.2,52377,2021-04-13
4209,Sold,0x392d47,0xbff231,"23Ξ ($49,780)","Apr 13, 2021",23,49780,2021-04-13
4842,Sold,0x0e9aed,0x2cb435,"34.99Ξ ($114,067)","May 03, 2021",34.99,114067,2021-05-03
4842,Sold,0x5deedc,0x0e9aed,"30Ξ ($83,473)","Apr 30, 2021",30,83473,2021-04-30
6553,Sold,3747143,6583658,"23Ξ ($74,980)","May 03, 2021",23,74980,2021-05-03
6553,Sold,8844177,3747143,"24.99Ξ ($79,203)","May 03, 2021",24.99,79203,2021-05-03
7789,Sold,5734076,3411394,"29.99Ξ ($95,050)","May 03, 2021",29.99,95050,2021-05-03
2211,Sold,Pranksy,0x023ef7,"21Ξ ($66,557)","May 03, 2021",21,66557,2021-05-03
2211,Sold,0x9747d4,Pranksy,"23Ξ ($73,407)","May 03, 2021",23,73407,2021-05-03
7254,Sold,Pranksy,0x023ef7,"21Ξ ($66,557)","May 03, 2021",21,66557,2021-05-03
7254,Sold,0xb9fba8,Pranksy,"22.50Ξ ($71,812)","May 03, 2021",22.5,71812,2021-05-03
7489,Sold,3926171,10072659,"25Ξ ($79,235)","May 03, 2021",25,79235,2021-05-03
8334,Sold,0x6f4a2d,13252568,"34.50Ξ ($109,344)","May 03, 2021",34.5,109344,2021-05-03
6169,Sold,0x828920,0xce9000,"23.99Ξ ($76,034)","May 03, 2021",23.99,76034,2021-05-03
6169,Sold,0xcd2c66,0x828920,"24.95Ξ ($79,077)","May 03, 2021",24.95,79077,2021-05-03
8451,Sold,7910798,tentoedt…,"32Ξ ($101,421)","May 03, 2021",32,101421,2021-05-03
8451,Sold,14466930,0x78b58e,"25Ξ ($73,140)","May 02, 2021",25,73140,2021-05-02
2661,Sold,0x110929,0xf7f7d7,"26Ξ ($82,404)","May 03, 2021",26,82404,2021-05-03
8399,Sold,0xb6be4d,13911083,"24.49Ξ ($77,619)","May 03, 2021",24.49,77619,2021-05-03
6003,Sold,3926171,4133877,"24.50Ξ ($77,650)","May 03, 2021",24.5,77650,2021-05-03
5731,Sold,11769679,1278319,"24Ξ ($76,066)","May 03, 2021",24,76066,2021-05-03
5731,Sold,15226688,11769679,"23.70Ξ ($75,115)","May 03, 2021",23.7,75115,2021-05-03
5731,Sold,11844417,15226688,"23.50Ξ ($75,003)","May 03, 2021",23.5,75003,2021-05-03
5731,Sold,337252,11844417,"20Ξ ($49,351)","Apr 15, 2021",20,49351,2021-04-15
2595,Sold,0xc5b066,arad.eth,"24Ξ ($76,066)","May 03, 2021",24,76066,2021-05-03
2595,Sold,AZonneve…,0xc5b066,"23.74Ξ ($75,242)","May 03, 2021",23.74,75242,2021-05-03
2595,Sold,0x9e199d,quantbik…,"21.99Ξ ($55,470)","Apr 26, 2021",21.99,55470,2021-04-26
6448,Sold,0xa25803,0xbae25a,"24Ξ ($76,066)","May 03, 2021",24,76066,2021-05-03
4965,Sold,0x97db27,mjdougla…,"27.99Ξ ($88,712)","May 03, 2021",27.99,88712,2021-05-03
4965,Sold,brazy.et…,0x97db27,"24.50Ξ ($58,794)","Apr 22, 2021",24.5,58794,2021-04-22
9815,Sold,0xe85740,0xce9000,"23.30Ξ ($73,847)","May 03, 2021",23.3,73847,2021-05-03
9815,Sold,0xa25803,0xe85740,"24Ξ ($76,066)","May 03, 2021",24,76066,2021-05-03
9903,Sold,0x3f13f5,wookie.e…,"23.99Ξ ($76,034)","May 03, 2021",23.99,76034,2021-05-03
9903,Sold,0xf3016b,0x3f13f5,"24.19Ξ ($76,668)","May 03, 2021",24.19,76668,2021-05-03
9903,Sold,0x88c500,0xf3016b,"24Ξ ($55,987)","Apr 21, 2021",24,55987,2021-04-21
8372,Sold,12760011,itsfine,"23.75Ξ ($75,273)","May 03, 2021",23.75,75273,2021-05-03
8372,Sold,9952039,0xc2b3cb,"23.50Ξ ($74,563)","May 03, 2021",23.5,74563,2021-05-03
8372,Sold,13547068,0x97db27,"21.98Ξ ($60,777)","Apr 30, 2021",21.98,60777,2021-04-30
8372,Sold,755965,0xceb63c,"21.25Ξ ($49,327)","Apr 23, 2021",21.25,49327,2021-04-23
4085,Sold,14214181,itsfine,"24.20Ξ ($76,699)","May 03, 2021",24.2,76699,2021-05-03
8774,Sold,0xa98ed8,itsfine,"24Ξ ($76,066)","May 03, 2021",24,76066,2021-05-03
8774,Sold,0xb6be4d,0xa98ed8,"23.97Ξ ($75,971)","May 03, 2021",23.97,75971,2021-05-03
8501,Sold,0xa2d76c,0x13816f,"23.39Ξ ($74,132)","May 03, 2021",23.39,74132,2021-05-03
8501,Sold,0x7f6af0,0xa2d76c,"24.98Ξ ($79,172)","May 03, 2021",24.98,79172,2021-05-03
8501,Sold,Wilcox,0x7f6af0,"22.50Ξ ($52,619)","Apr 14, 2021",22.5,52619,2021-04-14
6047,Sold,0xb70c1a,0x33b17a,"33.33Ξ ($105,636)","May 03, 2021",33.33,105636,2021-05-03
3459,Sold,11423707,2624502,"24.99Ξ ($79,203)","May 03, 2021",24.99,79203,2021-05-03
8020,Sold,0x033b8f,6901466,"38.69Ξ ($122,624)","May 03, 2021",38.69,122624,2021-05-03
6526,Sold,0x0e9aed,0xbe0c0d,"26.99Ξ ($85,542)","May 03, 2021",26.99,85542,2021-05-03
6526,Sold,0xa25803,0x0e9aed,"24Ξ ($66,421)","Apr 29, 2021",24,66421,2021-04-29
1797,Sold,gCAN,0x6ad395,"25Ξ ($79,235)","May 03, 2021",25,79235,2021-05-03
0680,Sold,0x3f13f5,Deeze,"23.40Ξ ($74,164)","May 03, 2021",23.4,74164,2021-05-03
7521,Sold,0x91e371,0x5c5a4a,"30Ξ ($95,082)","May 03, 2021",30,95082,2021-05-03
9507,Sold,shilpixe…,point-gr…,"24Ξ ($76,066)","May 03, 2021",24,76066,2021-05-03
3113,Sold,0xa6e2e9,aviexkak…,"23.97Ξ ($75,971)","May 03, 2021",23.97,75971,2021-05-03
4692,Sold,3997959,172389,"27.50Ξ ($87,158)","May 03, 2021",27.5,87158,2021-05-03
5120,Sold,0x0e9aed,tentoedt…,"39.99Ξ ($126,744)","May 03, 2021",39.99,126744,2021-05-03
5120,Sold,beautifu…,0x0e9aed,"30Ξ ($74,674)","Apr 26, 2021",30,74674,2021-04-26
1535,Sold,0x267e95,0x7c2b65,"23.99Ξ ($76,034)","May 03, 2021",23.99,76034,2021-05-03
0669,Sold,chifoomi,0xe85740,"24.69Ξ ($78,339)","May 03, 2021",24.69,78339,2021-05-03
7818,Sold,12743405,139321,"26Ξ ($82,495)","May 03, 2021",26,82495,2021-05-03
2450,Sold,0x953750,0xa7bd74,"29Ξ ($92,014)","May 03, 2021",29,92014,2021-05-03
7225,Sold,0x78b58e,6306707,"24.50Ξ ($77,736)","May 03, 2021",24.5,77736,2021-05-03
7225,Sold,0x49c3fe,7910798,"21Ξ ($61,258)","May 01, 2021",21,61258,2021-05-01
7225,Sold,0x97db27,4834302,"22.49Ξ ($62,721)","Apr 30, 2021",22.49,62721,2021-04-30
7225,Sold,0xe00231,9952039,"21Ξ ($57,336)","Apr 28, 2021",21,57336,2021-04-28
5340,Sold,0x5b098b,0x62bdc6,"23.40Ξ ($74,246)","May 03, 2021",23.4,74246,2021-05-03
3536,Sold,0xe85740,evantan.…,"26.99Ξ ($85,636)","May 03, 2021",26.99,85636,2021-05-03
3536,Sold,0x0b88fd,0xe85740,"26Ξ ($65,613)","Apr 27, 2021",26,65613,2021-04-27
7075,Sold,0x023ef7,0xaaa3f0,"24.99Ξ ($79,291)","May 03, 2021",24.99,79291,2021-05-03
8288,Sold,Goop,0x97920e,"23.10Ξ ($73,294)","May 03, 2021",23.1,73294,2021-05-03
8667,Sold,Ouroboro…,0xbae25a,"23Ξ ($72,976)","May 03, 2021",23,72976,2021-05-03
1072,Sold,0x0e9aed,0x8be6ad,"22.99Ξ ($73,376)","May 03, 2021",22.99,73376,2021-05-03
1072,Sold,0x4abc7c,0x0e9aed,"20Ξ ($48,687)","Apr 26, 2021",20,48687,2021-04-26
1072,Sold,0x5e43e1,0x4abc7c,"22Ξ ($47,630)","Apr 13, 2021",22,47630,2021-04-13
1463,Sold,jmg,0x8be6ad,"22.99Ξ ($73,376)","May 03, 2021",22.99,73376,2021-05-03
1340,Sold,blocksta…,0xe85740,"30Ξ ($95,749)","May 03, 2021",30,95749,2021-05-03
5516,Sold,sartoshi…,0x8be6ad,"23.95Ξ ($76,440)","May 03, 2021",23.95,76440,2021-05-03
5516,Sold,0x8bd9c4,sartoshi…,"20.50Ξ ($51,130)","Apr 26, 2021",20.5,51130,2021-04-26
5516,Sold,0x62bdc6,0x8bd9c4,"19.97Ξ ($46,100)","Apr 25, 2021",19.97,46100,2021-04-25
5516,Sold,0x62bdc6,wookie.e…,"19.79Ξ ($47,036)","Apr 17, 2021",19.79,47036,2021-04-17
3118,Sold,10937065,9168557,"23.97Ξ ($76,503)","May 03, 2021",23.97,76503,2021-05-03
5254,Sold,0xe281b9,sexpunks…,"23Ξ ($73,407)","May 03, 2021",23,73407,2021-05-03
8052,Sold,0xa25803,0x8be6ad,"24Ξ ($76,599)","May 03, 2021",24,76599,2021-05-03
9730,Sold,alphab.e…,0x8be6ad,"23.80Ξ ($75,961)","May 03, 2021",23.8,75961,2021-05-03
8924,Sold,anonymou…,0xdef4ed,"23.50Ξ ($75,003)","May 03, 2021",23.5,75003,2021-05-03
1269,Sold,15693900,9168557,"23.89Ξ ($76,248)","May 03, 2021",23.89,76248,2021-05-03
4902,Sold,0xb08be7,0xb155c5,"23.30Ξ ($74,365)","May 03, 2021",23.3,74365,2021-05-03
5087,Sold,0x648174,0x8be6ad,"23.75Ξ ($75,801)","May 03, 2021",23.75,75801,2021-05-03
8494,Sold,0x0e9aed,0x8be6ad,"22.99Ξ ($73,376)","May 03, 2021",22.99,73376,2021-05-03
8494,Sold,0x62bdc6,0x0e9aed,"21.47Ξ ($53,976)","Apr 27, 2021",21.47,53976,2021-04-27
8494,Sold,qiwave,0x62bdc6,"20.30Ξ ($49,916)","Apr 26, 2021",20.3,49916,2021-04-26
3615,Sold,0x267e95,9168557,"22.99Ξ ($73,376)","May 03, 2021",22.99,73376,2021-05-03
3615,Sold,0xb70c1a,2522773,"22.45Ξ ($59,212)","Apr 27, 2021",22.45,59212,2021-04-27
5275,Sold,0x0e9aed,0x8be6ad,"22.99Ξ ($73,376)","May 03, 2021",22.99,73376,2021-05-03
2996,Sold,0xea94c9,0x8be6ad,"22.96Ξ ($73,280)","May 03, 2021",22.96,73280,2021-05-03
1109,Sold,10609911,9168557,"22.40Ξ ($71,493)","May 03, 2021",22.4,71493,2021-05-03
2916,Sold,0x0d82eb,9168557,"22.89Ξ ($73,056)","May 03, 2021",22.89,73056,2021-05-03
2916,Sold,0x052564,885483,"19.90Ξ ($43,892)","Apr 19, 2021",19.9,43892,2021-04-19
3514,Sold,renaissa…,0x8be6ad,"22.75Ξ ($72,610)","May 03, 2021",22.75,72610,2021-05-03
3514,Sold,0x3cd607,renaissa…,"20Ξ ($43,625)","Apr 18, 2021",20,43625,2021-04-18
7345,Sold,0xe703f2,0x8be6ad,"22.22Ξ ($70,918)","May 03, 2021",22.22,70918,2021-05-03
0483,Sold,tappy.et…,0x8be6ad,"21.89Ξ ($69,865)","May 03, 2021",21.89,69865,2021-05-03
0483,Sold,0xb7f7bb,tappy.et…,"21.89Ξ ($57,730)","Apr 27, 2021",21.89,57730,2021-04-27
2648,Sold,0x8bd9c4,0x8be6ad,"21.96Ξ ($70,088)","May 03, 2021",21.96,70088,2021-05-03
2648,Sold,0x62bdc6,0x8bd9c4,"21.49Ξ ($58,825)","Apr 28, 2021",21.49,58825,2021-04-28
2648,Sold,0x753b20,0x62bdc6,"19.89Ξ ($47,274)","Apr 17, 2021",19.89,47274,2021-04-17
2648,Sold,0x6611fe,0x753b20,"19.25Ξ ($46,649)","Apr 17, 2021",19.25,46649,2021-04-17
5703,Sold,0xa6e2e9,0x8be6ad,"22.97Ξ ($73,312)","May 03, 2021",22.97,73312,2021-05-03
5510,Sold,0xa6e2e9,0x8be6ad,"22.97Ξ ($73,312)","May 03, 2021",22.97,73312,2021-05-03
3429,Sold,CryptoNo…,sartoshi…,"40Ξ ($127,665)","May 03, 2021",40,127665,2021-05-03
4943,Sold,0x0e9aed,0xd3e2e7,"27.99Ξ ($89,334)","May 03, 2021",27.99,89334,2021-05-03
4943,Sold,0x052564,0x0e9aed,"25.50Ξ ($53,234)","Apr 20, 2021",25.5,53234,2021-04-20
5189,Sold,0xef784c,0xe85740,"24.75Ξ ($78,993)","May 03, 2021",24.75,78993,2021-05-03
1376,Sold,0xc77fa6,arad.eth,"30Ξ ($94,278)","May 03, 2021",30,94278,2021-05-03
5575,Sold,0x3731a5,0x4f63c2,"21.49Ξ ($67,534)","May 03, 2021",21.49,67534,2021-05-03
6265,Sold,anonymou…,0x8be6ad,"22.98Ξ ($72,217)","May 03, 2021",22.98,72217,2021-05-03
6193,Sold,0x67e095,0x8be6ad,"22.95Ξ ($72,122)","May 03, 2021",22.95,72122,2021-05-03
9536,Sold,0x694eda,0x8be6ad,"64.99Ξ ($204,237)","May 03, 2021",64.99,204237,2021-05-03
9902,Sold,0x0d7794,0x351896,"22Ξ ($69,137)","May 03, 2021",22,69137,2021-05-03
5046,Sold,TokenAng…,0x9649e3,"23Ξ ($71,929)","May 03, 2021",23,71929,2021-05-03
1796,Sold,0x087173,0xf4bb4e,"26.40Ξ ($82,562)","May 03, 2021",26.4,82562,2021-05-03
1796,Sold,mel.eth,0x087173,"21.50Ξ ($50,282)","Apr 23, 2021",21.5,50282,2021-04-23
5239,Sold,0x0b88fd,j1mmy,"27Ξ ($84,788)","May 03, 2021",27,84788,2021-05-03
1959,Sold,0x88c500,0x052564,"55Ξ ($172,717)","May 03, 2021",55,172717,2021-05-03
8727,Sold,0x5dd757,0x514d6f,"22.89Ξ ($72,648)","May 03, 2021",22.89,72648,2021-05-03
7007,Sold,0x0e9aed,anonymou…,"84.99Ξ ($268,132)","May 03, 2021",84.99,268132,2021-05-03
1011,Sold,anonymou…,0x4efad7,"23.85Ξ ($75,243)","May 03, 2021",23.85,75243,2021-05-03
1011,Sold,AZonneve…,anonymou…,"22.85Ξ ($56,373)","Apr 26, 2021",22.85,56373,2021-04-26
1722,Sold,anonymou…,0xb5e6ac,"33.75Ξ ($107,327)","May 03, 2021",33.75,107327,2021-05-03
5271,Sold,0xe85740,15705941,"25.99Ξ ($79,426)","May 03, 2021",25.99,79426,2021-05-03
5271,Sold,0x429a06,15226688,"24Ξ ($70,211)","May 01, 2021",24,70211,2021-05-01
5271,Sold,0x052564,4364806,"25.10Ξ ($73,218)","May 01, 2021",25.1,73218,2021-05-01
3936,Sold,wookie.e…,richerd.…,"45Ξ ($137,100)","May 03, 2021",45,137100,2021-05-03
4816,Sold,0x0ec348,🍄mario.…,"24.20Ξ ($73,729)","May 03, 2021",24.2,73729,2021-05-03
6878,Sold,0x0b7059,0x6b9b69,"22.21Ξ ($67,188)","May 03, 2021",22.21,67188,2021-05-03
9224,Sold,0x052564,2743544,"36.50Ξ ($110,417)","May 03, 2021",36.5,110417,2021-05-03
1163,Sold,shilpixe…,brianx.e…,"49Ξ ($146,842)","May 03, 2021",49,146842,2021-05-03
1736,Sold,5734076,11909198,"26.99Ξ ($80,688)","May 03, 2021",26.99,80688,2021-05-03
2369,Sold,13401139,2717936,"35Ξ ($104,634)","May 03, 2021",35,104634,2021-05-03
8282,Sold,0xd3e2e7,0xa6df79,"42.67Ξ ($125,935)","May 03, 2021",42.67,125935,2021-05-03
5400,Sold,0x93c838,0x0b88fd,"21.44Ξ ($63,760)","May 02, 2021",21.44,63760,2021-05-02
5400,Sold,0x5f5df4,0x93c838,"20.50Ξ ($45,366)","Apr 13, 2021",20.5,45366,2021-04-13
9620,Sold,3699717,755965,"21.45Ξ ($63,790)","May 02, 2021",21.45,63790,2021-05-02
6136,Sold,3699717,755965,"21.45Ξ ($63,790)","May 02, 2021",21.45,63790,2021-05-02
6350,Sold,0xdef4ed,darymore…,"41.20Ξ ($122,523)","May 02, 2021",41.2,122523,2021-05-02
6350,Sold,keyboard…,0xcbbd34,"32.50Ξ ($81,226)","Apr 26, 2021",32.5,81226,2021-04-26
2905,Sold,0x62bdc6,studio13…,"21.97Ξ ($65,221)","May 02, 2021",21.97,65221,2021-05-02
7552,Sold,0x74be0a,0xa32f90,"23.99Ξ ($71,268)","May 02, 2021",23.99,71268,2021-05-02
7984,Sold,5734076,11040461,"28.49Ξ ($83,405)","May 02, 2021",28.49,83405,2021-05-02
0730,Sold,15693900,13323751,"24.50Ξ ($70,936)","May 02, 2021",24.5,70936,2021-05-02
9152,Sold,0x0e9aed,0x830cc1,"23.99Ξ ($69,092)","May 02, 2021",23.99,69092,2021-05-02
8902,Sold,0xff2854,872428,"22.98Ξ ($66,851)","May 02, 2021",22.98,66851,2021-05-02
2066,Sold,Snowfro,yfimaxi.…,500Ξ ($1.46M),"May 02, 2021",500,1460000,2021-05-02
3365,Sold,0xd94be5,0x7fc4ad,"32Ξ ($93,620)","May 02, 2021",32,93620,2021-05-02
3365,Sold,0x392d47,0xd94be5,"29.90Ξ ($87,220)","May 01, 2021",29.9,87220,2021-05-01
3365,Sold,@whiz,0x392d47,"31Ξ ($74,591)","Apr 17, 2021",31,74591,2021-04-17
3736,Sold,cryptoke…,0x62bdc6,"21Ξ ($61,775)","May 02, 2021",21,61775,2021-05-02
3736,Sold,wookie.e…,cryptoke…,"21Ξ ($57,385)","Apr 29, 2021",21,57385,2021-04-29
5182,Sold,337252,957165,"24Ξ ($70,546)","May 02, 2021",24,70546,2021-05-02
2715,Sold,jmg,0x0e9aed,"39.99Ξ ($117,548)","May 02, 2021",39.99,117548,2021-05-02
8143,Sold,2yeah.et…,0xaea8e3,"22.50Ξ ($66,137)","May 02, 2021",22.5,66137,2021-05-02
5799,Sold,10937065,755965,"22.97Ξ ($67,519)","May 02, 2021",22.97,67519,2021-05-02
5237,Sold,0x0e9aed,0x0b88fd,"22.99Ξ ($67,577)","May 02, 2021",22.99,67577,2021-05-02
5237,Sold,0x62bdc6,0x0e9aed,"21.47Ξ ($46,468)","Apr 13, 2021",21.47,46468,2021-04-13
7429,Sold,11976269,755965,"22.97Ξ ($67,519)","May 02, 2021",22.97,67519,2021-05-02
8464,Sold,0xc63549,755965,"22.85Ξ ($67,166)","May 02, 2021",22.85,67166,2021-05-02
6745,Sold,5050142,755965,"22.95Ξ ($67,460)","May 02, 2021",22.95,67460,2021-05-02
6745,Sold,755965,5050142,"21Ξ ($45,465)","Apr 13, 2021",21,45465,2021-04-13
4238,Sold,0xcd2c66,0x0b88fd,"22.95Ξ ($67,460)","May 02, 2021",22.95,67460,2021-05-02
5975,Sold,10937065,6689278,"21.97Ξ ($64,579)","May 02, 2021",21.97,64579,2021-05-02
5751,Sold,0xd3e2e7,0xc480fb,"22.11Ξ ($65,173)","May 02, 2021",22.11,65173,2021-05-02
4486,Sold,0x2978f0,0x6611fe,"22.20Ξ ($65,438)","May 02, 2021",22.2,65438,2021-05-02
3168,Sold,15226688,5642118,"20.97Ξ ($61,813)","May 02, 2021",20.97,61813,2021-05-02
3168,Sold,5700683,15226688,"20.10Ξ ($58,757)","May 01, 2021",20.1,58757,2021-05-01
6295,Sold,0x42f3f7,tappy.et…,"73Ξ ($215,181)","May 02, 2021",73,215181,2021-05-02
2486,Sold,Kataster…,0x561786,"20.98Ξ ($61,842)","May 02, 2021",20.98,61842,2021-05-02
3599,Sold,0x0b88fd,0x14d7ab,"21.75Ξ ($64,112)","May 02, 2021",21.75,64112,2021-05-02
7167,Sold,12878075,957165,"41.75Ξ ($123,066)","May 02, 2021",41.75,123066,2021-05-02
6937,Sold,shilpixe…,0xb70c1a,"29Ξ ($84,838)","May 01, 2021",29,84838,2021-05-01
1129,Sold,8719534,5109605,"26.99Ξ ($78,958)","May 01, 2021",26.99,78958,2021-05-01
5914,Sold,6689278,shilpixe…,"37.15Ξ ($109,360)","May 01, 2021",37.15,109360,2021-05-01
2712,Sold,5734076,8901543,"27.99Ξ ($82,395)","May 01, 2021",27.99,82395,2021-05-01
6228,Sold,9233878,957165,"24Ξ ($70,650)","May 01, 2021",24,70650,2021-05-01
1504,Sold,5734076,13137178,"24.99Ξ ($72,898)","May 01, 2021",24.99,72898,2021-05-01
5814,Sold,0xa3818b,7910798,"24.89Ξ ($72,606)","May 01, 2021",24.89,72606,2021-05-01
8376,Sold,0x052564,0x46524c,"24.10Ξ ($70,301)","May 01, 2021",24.1,70301,2021-05-01
1495,Sold,0x0ecd8a,chi.eth,"34Ξ ($97,137)","May 01, 2021",34,97137,2021-05-01
6473,Sold,shilpixe…,0xfa4c8f,"47Ξ ($135,038)","May 01, 2021",47,135038,2021-05-01
0824,Sold,0xf36972,0xca04e9,"200Ξ ($574,950)","May 01, 2021",200,574950,2021-05-01
9612,Sold,12192872,yfimaxi.…,"52Ξ ($149,680)","May 01, 2021",52,149680,2021-05-01
6529,Sold,shilpixe…,0x19c364,"99Ξ ($282,873)","May 01, 2021",99,282873,2021-05-01
9759,Sold,wookie.e…,0xce7a9f,"23Ξ ($65,718)","May 01, 2021",23,65718,2021-05-01
9759,Sold,gr8wxl,wookie.e…,"20.99Ξ ($47,171)","Apr 25, 2021",20.99,47171,2021-04-25
3357,Sold,punkstha…,0x830cc1,"20.50Ξ ($58,575)","May 01, 2021",20.5,58575,2021-05-01
1605,Sold,0x76334d,0x850cae,"75Ξ ($212,483)","May 01, 2021",75,212483,2021-05-01
3629,Sold,0x0b88fd,AZonneve…,"22.75Ξ ($64,886)","May 01, 2021",22.75,64886,2021-05-01
3971,Sold,7293485,9325788,"21Ξ ($59,895)","May 01, 2021",21,59895,2021-05-01
6735,Sold,0x052564,0x7aed31,"23Ξ ($65,416)","May 01, 2021",23,65416,2021-05-01
9405,Sold,4542973,6428511,"34Ξ ($96,304)","May 01, 2021",34,96304,2021-05-01
2767,Sold,4915169,4728028,"26.99Ξ ($74,537)","May 01, 2021",26.99,74537,2021-05-01
8946,Sold,0xac33a5,0x7e4100,"28.50Ξ ($78,422)","Apr 30, 2021",28.5,78422,2021-04-30
8648,Sold,7293485,6907279,"22.75Ξ ($62,985)","Apr 30, 2021",22.75,62985,2021-04-30
5065,Sold,0x641189,0x224ce8,"25.50Ξ ($70,599)","Apr 30, 2021",25.5,70599,2021-04-30
3004,Sold,antagoni…,0x99e0ac,"24.50Ξ ($67,830)","Apr 30, 2021",24.5,67830,2021-04-30
4542,Sold,15226688,11888085,"27.24Ξ ($75,416)","Apr 30, 2021",27.24,75416,2021-04-30
4542,Sold,1633948,15226688,"25.75Ξ ($67,804)","Apr 27, 2021",25.75,67804,2021-04-27
9381,Sold,0x034b46,0x18ee9c,"29.85Ξ ($83,056)","Apr 30, 2021",29.85,83056,2021-04-30
9381,Sold,KennyB,0x034b46,"26Ξ ($58,696)","Apr 23, 2021",26,58696,2021-04-23
7778,Sold,0x6f4a2d,4156.eth,"30Ξ ($82,953)","Apr 30, 2021",30,82953,2021-04-30
2043,Sold,0xa66f42,0xb08be7,"21Ξ ($58,067)","Apr 30, 2021",21,58067,2021-04-30
4995,Sold,0x2b47c5,0x93d020,"88.88Ξ ($245,993)","Apr 30, 2021",88.88,245993,2021-04-30
6614,Sold,TweetyPi…,0xd562a0,"20.99Ξ ($57,596)","Apr 30, 2021",20.99,57596,2021-04-30
4831,Sold,brazy.et…,0x6c4aec,"21.40Ξ ($58,863)","Apr 30, 2021",21.4,58863,2021-04-30
4831,Sold,0x01c2be,brazy.et…,"20Ξ ($55,005)","Apr 30, 2021",20,55005,2021-04-30
9527,Sold,0xa25803,0x62175f,"24Ξ ($66,014)","Apr 30, 2021",24,66014,2021-04-30
2353,Sold,5529929,3826546,"54Ξ ($148,542)","Apr 30, 2021",54,148542,2021-04-30
1791,Sold,tappy.et…,0x0529f3,"23.50Ξ ($65,474)","Apr 30, 2021",23.5,65474,2021-04-30
1791,Sold,0x18ee9c,tappy.et…,"21.95Ξ ($57,894)","Apr 27, 2021",21.95,57894,2021-04-27
1791,Sold,sartoshi…,0x18ee9c,"20.45Ξ ($50,290)","Apr 26, 2021",20.45,50290,2021-04-26
1791,Sold,0x6336fb,sartoshi…,"22.50Ξ ($49,217)","Apr 18, 2021",22.5,49217,2021-04-18
1791,Sold,0xddfdcb,0x6336fb,"20.99Ξ ($50,809)","Apr 16, 2021",20.99,50809,2021-04-16
2390,Sold,0x5e43e1,0xcf8401,"33Ξ ($92,113)","Apr 30, 2021",33,92113,2021-04-30
7543,Sold,0xa5c80b,0xcf8401,"29Ξ ($80,948)","Apr 30, 2021",29,80948,2021-04-30
3618,Sold,anonymou…,0xcf8401,"33.33Ξ ($93,034)","Apr 30, 2021",33.33,93034,2021-04-30
3618,Sold,tappy.et…,anonymou…,"30Ξ ($66,364)","Apr 25, 2021",30,66364,2021-04-25
1151,Sold,0x4ea36c,16426320,"49Ξ ($134,215)","Apr 30, 2021",49,134215,2021-04-30
5681,Sold,755965,14240741,"51Ξ ($139,481)","Apr 30, 2021",51,139481,2021-04-30
9578,Sold,0x0b88fd,957165,"36Ξ ($98,457)","Apr 30, 2021",36,98457,2021-04-30
5054,Sold,755965,957165,"54Ξ ($147,686)","Apr 30, 2021",54,147686,2021-04-30
8287,Sold,0xb6be4d,10381737,"23.97Ξ ($66,338)","Apr 29, 2021",23.97,66338,2021-04-29
8185,Sold,Deeze,0x658a29,"23.89Ξ ($66,117)","Apr 29, 2021",23.89,66117,2021-04-29
8185,Sold,0x12c76a,Deeze,"22Ξ ($59,658)","Apr 28, 2021",22,59658,2021-04-28
5273,Sold,0xa6f637,0xffc49b,"27.22Ξ ($74,598)","Apr 29, 2021",27.22,74598,2021-04-29
1662,Sold,5734076,13446246,"23.99Ξ ($65,746)","Apr 29, 2021",23.99,65746,2021-04-29
9401,Sold,jesterbo…,0x64d49a,"23.75Ξ ($65,620)","Apr 29, 2021",23.75,65620,2021-04-29
2577,Sold,0xa7bd74,Hans,"22.99Ξ ($63,520)","Apr 29, 2021",22.99,63520,2021-04-29
2577,Sold,0x62bdc6,0xa7bd74,"20Ξ ($46,020)","Apr 13, 2021",20,46020,2021-04-13
4982,Sold,957165,5333848,"27.99Ξ ($77,335)","Apr 29, 2021",27.99,77335,2021-04-29
4982,Sold,3478784,957165,"24Ξ ($61,688)","Apr 27, 2021",24,61688,2021-04-27
2878,Sold,0x97db27,0x344eda,"24.25Ξ ($67,724)","Apr 29, 2021",24.25,67724,2021-04-29
2878,Sold,0x379133,0x97db27,"22.50Ξ ($53,345)","Apr 21, 2021",22.5,53345,2021-04-21
7810,Sold,0x7774e9,0x4c4a54,"23.97Ξ ($66,711)","Apr 29, 2021",23.97,66711,2021-04-29
7810,Sold,Slider92,0x7774e9,"21.97Ξ ($48,860)","Apr 18, 2021",21.97,48860,2021-04-18
9505,Sold,0x56fc4b,0xbf8090,"20.60Ξ ($57,332)","Apr 29, 2021",20.6,57332,2021-04-29
6986,Sold,0xa25803,0x9b49c8,"24Ξ ($66,795)","Apr 29, 2021",24,66795,2021-04-29
9912,Sold,moonwhal…,anonymou…,"87Ξ ($242,131)","Apr 29, 2021",87,242131,2021-04-29
9753,Sold,anonymou…,0x66c951,"23.45Ξ ($64,721)","Apr 29, 2021",23.45,64721,2021-04-29
4776,Sold,sighduck…,kenshiro…,"38.33Ξ ($105,789)","Apr 29, 2021",38.33,105789,2021-04-29
7006,Sold,0xa25803,0xed2d12,"24Ξ ($66,330)","Apr 29, 2021",24,66330,2021-04-29
8271,Sold,11976269,442787,"22.97Ξ ($62,748)","Apr 29, 2021",22.97,62748,2021-04-29
9093,Sold,0x0b88fd,8056113,"27.25Ξ ($74,440)","Apr 29, 2021",27.25,74440,2021-04-29
3509,Sold,0x97920e,0xe30161,"23.49Ξ ($63,686)","Apr 29, 2021",23.49,63686,2021-04-29
3509,Sold,0xec4b06,0x97920e,"19.90Ξ ($48,480)","Apr 15, 2021",19.9,48480,2021-04-15
8504,Sold,0xef784c,2692405,"24.75Ξ ($67,278)","Apr 29, 2021",24.75,67278,2021-04-29
0743,Sold,0x516358,0x0e9aed,"20.21Ξ ($54,937)","Apr 29, 2021",20.21,54937,2021-04-29
9390,Sold,0xbff799,0xb08be7,"25.99Ξ ($70,813)","Apr 28, 2021",25.99,70813,2021-04-28
9390,Sold,0xf897c8,0xbff799,"25.99Ξ ($56,268)","Apr 13, 2021",25.99,56268,2021-04-13
4723,Sold,tonyherr…,0x623fc4,"33Ξ ($90,081)","Apr 28, 2021",33,90081,2021-04-28
5017,Sold,10937065,14240741,"22.97Ξ ($62,702)","Apr 28, 2021",22.97,62702,2021-04-28
6910,Sold,0x577ebc,13599745,"26.99Ξ ($73,676)","Apr 28, 2021",26.99,73676,2021-04-28
9496,Sold,0x5fd36a,0x78b58e,"49.95Ξ ($136,728)","Apr 28, 2021",49.95,136728,2021-04-28
9423,Sold,337252,4755096,"38Ξ ($104,017)","Apr 28, 2021",38,104017,2021-04-28
6364,Sold,11844417,6428511,"22.50Ξ ($61,432)","Apr 28, 2021",22.5,61432,2021-04-28
6364,Sold,755965,11844417,"21Ξ ($48,703)","Apr 24, 2021",21,48703,2021-04-24
2997,Sold,6689278,13547068,"55Ξ ($150,088)","Apr 28, 2021",55,150088,2021-04-28
6778,Sold,anonymou…,0xb4bb41,"28.88Ξ ($78,810)","Apr 28, 2021",28.88,78810,2021-04-28
9726,Sold,2594425,1216281,"23Ξ ($62,208)","Apr 28, 2021",23,62208,2021-04-28
4187,Sold,0x91338c,16592609,"24Ξ ($64,522)","Apr 28, 2021",24,64522,2021-04-28
5272,Sold,0x33b17a,anonymou…,"33.33Ξ ($90,636)","Apr 28, 2021",33.33,90636,2021-04-28
7633,Sold,anonymou…,metam.et…,"22.88Ξ ($61,544)","Apr 28, 2021",22.88,61544,2021-04-28
5860,Sold,antagoni…,0x2b290f,"28.28Ξ ($73,497)","Apr 28, 2021",28.28,73497,2021-04-28
5860,Sold,0xf51d05,antagoni…,"30Ξ ($73,707)","Apr 15, 2021",30,73707,2021-04-15
6283,Sold,755965,2828559,"29Ξ ($75,368)","Apr 28, 2021",29,75368,2021-04-28
7681,Sold,0xaea8e3,0x73e4a2,"22.20Ξ ($58,247)","Apr 28, 2021",22.2,58247,2021-04-28
7681,Sold,0x62bdc6,0xaea8e3,"19.97Ξ ($45,499)","Apr 24, 2021",19.97,45499,2021-04-24
7264,Sold,0x18ee9c,0x131b2b,"26.75Ξ ($70,728)","Apr 28, 2021",26.75,70728,2021-04-28
7264,Sold,0x62bdc6,0x18ee9c,"24.97Ξ ($53,664)","Apr 18, 2021",24.97,53664,2021-04-18
3333,Sold,0xb813c6,0xf8cc87,"69.99Ξ ($184,758)","Apr 28, 2021",69.99,184758,2021-04-28
7649,Sold,0x577ebc,11996186,"58Ξ ($153,107)","Apr 28, 2021",58,153107,2021-04-28
3195,Sold,10937065,12652946,"21.98Ξ ($59,502)","Apr 28, 2021",21.98,59502,2021-04-28
0161,Sold,0x3634f3,0x4b1727,"22.21Ξ ($60,124)","Apr 28, 2021",22.21,60124,2021-04-28
1773,Sold,0x56be13,0xedcb09,"23.66Ξ ($64,050)","Apr 28, 2021",23.66,64050,2021-04-28
9197,Sold,0x10d23d,brazy.et…,"20Ξ ($54,142)","Apr 28, 2021",20,54142,2021-04-28
9515,Sold,0x7a37a1,tappy.et…,"54Ξ ($142,151)","Apr 28, 2021",54,142151,2021-04-28
6591,Sold,0xbf8090,14272028,"21.80Ξ ($57,442)","Apr 27, 2021",21.8,57442,2021-04-27
7336,Sold,755965,2089018,"25.50Ξ ($67,191)","Apr 27, 2021",25.5,67191,2021-04-27
8515,Sold,0x0ecd8a,0x0ec348,"79Ξ ($206,930)","Apr 27, 2021",79,206930,2021-04-27
0383,Sold,16706349,12263111,"39.70Ξ ($105,043)","Apr 27, 2021",39.7,105043,2021-04-27
3010,Sold,heeee.et…,0x6feeb0,"24Ξ ($63,502)","Apr 27, 2021",24,63502,2021-04-27
3010,Sold,0x267e95,heeee.et…,"21.49Ξ ($52,203)","Apr 22, 2021",21.49,52203,2021-04-22
3010,Sold,EliteCat…,0x267e95,"19.85Ξ ($47,291)","Apr 21, 2021",19.85,47291,2021-04-21
9468,Sold,jmg,0x1fe03a,"27.99Ξ ($74,060)","Apr 27, 2021",27.99,74060,2021-04-27
8171,Sold,6811088,14548427,"25.25Ξ ($66,810)","Apr 27, 2021",25.25,66810,2021-04-27
8171,Sold,957165,6811088,"24.99Ξ ($65,910)","Apr 27, 2021",24.99,65910,2021-04-27
8171,Sold,755965,957165,"20.50Ξ ($46,248)","Apr 25, 2021",20.5,46248,2021-04-25
6721,Sold,6689278,1633948,"150Ξ ($394,972)","Apr 27, 2021",150,394972,2021-04-27
6388,Sold,755965,11626205,"22.75Ξ ($59,904)","Apr 27, 2021",22.75,59904,2021-04-27
7682,Sold,1913727,16305287,"36.75Ξ ($96,929)","Apr 27, 2021",36.75,96929,2021-04-27
2930,Sold,1633948,957165,"29Ξ ($76,488)","Apr 27, 2021",29,76488,2021-04-27
0627,Sold,scalynel…,0x052564,"130Ξ ($342,878)","Apr 27, 2021",130,342878,2021-04-27
5779,Sold,12743405,antagoni…,"25Ξ ($66,783)","Apr 27, 2021",25,66783,2021-04-27
3011,Sold,0xc05488,0xab61cc,667Ξ ($1.76M),"Apr 27, 2021",667,1760000,2021-04-27
8172,Sold,quantbik…,0xd2e4d4,"23.32Ξ ($61,505)","Apr 27, 2021",23.32,61505,2021-04-27
8869,Sold,11976269,3322064,"21.98Ξ ($56,405)","Apr 27, 2021",21.98,56405,2021-04-27
7207,Sold,4774681,15543570,"22.50Ξ ($57,154)","Apr 27, 2021",22.5,57154,2021-04-27
8497,Sold,1457888,9468484,"24Ξ ($61,221)","Apr 27, 2021",24,61221,2021-04-27
9572,Sold,11446499,13547068,"49.99Ξ ($127,493)","Apr 27, 2021",49.99,127493,2021-04-27
2212,Sold,0x0e9aed,0x6ca323,"22.50Ξ ($56,780)","Apr 27, 2021",22.5,56780,2021-04-27
2212,Sold,0x62bdc6,0x0e9aed,"18.97Ξ ($42,459)","Apr 23, 2021",18.97,42459,2021-04-23
3661,Sold,0x9ff4ea,anonymou…,"62Ξ ($154,721)","Apr 27, 2021",62,154721,2021-04-27
1354,Sold,0x2b290f,0x464994,"53Ξ ($132,262)","Apr 27, 2021",53,132262,2021-04-27
1354,Sold,owlman.e…,0x2b290f,"40Ξ ($85,018)","Apr 19, 2021",40,85018,2021-04-19
1354,Sold,0x8ee483,0xabf107,"38.88Ξ ($95,375)","Apr 16, 2021",38.88,95375,2021-04-16
2210,Sold,0x83e0e1,tonyherr…,"21.94Ξ ($55,069)","Apr 27, 2021",21.94,55069,2021-04-27
9581,Sold,0x052564,sartoshi…,"22.50Ξ ($56,474)","Apr 27, 2021",22.5,56474,2021-04-27
3084,Sold,niwin,4156.eth,"32Ξ ($80,816)","Apr 27, 2021",32,80816,2021-04-27
9787,Sold,tonyherr…,0x623fc4,"25Ξ ($63,137)","Apr 27, 2021",25,63137,2021-04-27
5176,Sold,0x27d5e1,0x558e9c,"23Ξ ($58,086)","Apr 27, 2021",23,58086,2021-04-27
8933,Sold,0x5e1b38,0x6fe97d,"30Ξ ($75,765)","Apr 27, 2021",30,75765,2021-04-27
0239,Sold,cryptoke…,0x62bdc6,"21Ξ ($53,035)","Apr 27, 2021",21,53035,2021-04-27
0239,Sold,Zonked,cryptoke…,"19.49Ξ ($43,095)","Apr 25, 2021",19.49,43095,2021-04-25
6617,Sold,0xd4442b,0x0e9aed,"46Ξ ($115,645)","Apr 27, 2021",46,115645,2021-04-27
6617,Sold,monopoly…,0xd4442b,"42Ξ ($91,147)","Apr 13, 2021",42,91147,2021-04-13
5777,Sold,robers,aim.eth,"22.22Ξ ($56,386)","Apr 26, 2021",22.22,56386,2021-04-26
4402,Sold,0x18ee9c,Gmugr,"21.75Ξ ($55,193)","Apr 26, 2021",21.75,55193,2021-04-26
4402,Sold,0xf4b465,0x18ee9c,"18.99Ξ ($47,210)","Apr 17, 2021",18.99,47210,2021-04-17
4906,Sold,0xb9afc8,tonyherr…,"20.69Ξ ($50,367)","Apr 26, 2021",20.69,50367,2021-04-26
9270,Sold,robers,0x415424,"26.25Ξ ($65,062)","Apr 26, 2021",26.25,65062,2021-04-26
8363,Sold,tonyherr…,0xa6e59b,"22Ξ ($54,761)","Apr 26, 2021",22,54761,2021-04-26
8363,Sold,0xb4bb41,tonyherr…,"21.99Ξ ($52,235)","Apr 23, 2021",21.99,52235,2021-04-23
8363,Sold,0x23244e,0xb4bb41,"18.90Ξ ($46,986)","Apr 17, 2021",18.9,46986,2021-04-17
8571,Sold,0x656546,0xb5fc89,"24.99Ξ ($62,522)","Apr 26, 2021",24.99,62522,2021-04-26
9668,Sold,9224009,14240741,"35Ξ ($87,566)","Apr 26, 2021",35,87566,2021-04-26
4031,Sold,0x546149,0x32f348,"29.50Ξ ($74,185)","Apr 26, 2021",29.5,74185,2021-04-26
3458,Sold,0xd3e2e7,10505121,"21.67Ξ ($54,484)","Apr 26, 2021",21.67,54484,2021-04-26
1585,Sold,sartoshi…,thepanda…,"25Ξ ($62,354)","Apr 26, 2021",25,62354,2021-04-26
1585,Sold,0x0d82eb,sartoshi…,"23.99Ξ ($52,630)","Apr 18, 2021",23.99,52630,2021-04-18
1585,Sold,0x0503ed,0x0d82eb,"19.99Ξ ($44,566)","Apr 13, 2021",19.99,44566,2021-04-13
1585,Sold,0xbae25a,0x0503ed,"19Ξ ($42,275)","Apr 13, 2021",19,42275,2021-04-13
6177,Sold,0x64d49a,runhot99…,"33.50Ξ ($83,726)","Apr 26, 2021",33.5,83726,2021-04-26
1776,Sold,0xe03559,16305287,"42Ξ ($104,969)","Apr 26, 2021",42,104969,2021-04-26
7495,Sold,0x267e95,0x4322aa,"21.70Ξ ($54,055)","Apr 26, 2021",21.7,54055,2021-04-26
7495,Sold,cryptoke…,0x267e95,"20Ξ ($46,898)","Apr 25, 2021",20,46898,2021-04-25
7495,Sold,0x983ace,cryptoke…,"19.99Ξ ($48,788)","Apr 16, 2021",19.99,48788,2021-04-16
6211,Sold,flashrek…,0x0688d9,"21.95Ξ ($54,491)","Apr 26, 2021",21.95,54491,2021-04-26
6709,Sold,blocksta…,0xd31158,"23Ξ ($56,533)","Apr 26, 2021",23,56533,2021-04-26
1006,Sold,0xe281b9,anonymou…,"25.49Ξ ($62,886)","Apr 26, 2021",25.49,62886,2021-04-26
8028,Sold,0xdf612c,1790525,"32.88Ξ ($80,849)","Apr 26, 2021",32.88,80849,2021-04-26
0339,Sold,0xddfdcb,anonymou…,"79.99Ξ ($196,709)","Apr 26, 2021",79.99,196709,2021-04-26
9097,Sold,0x0b88fd,4496489,"103Ξ ($248,161)","Apr 26, 2021",103,248161,2021-04-26
5974,Sold,TokenAng…,punk5974…,"82.50Ξ ($191,933)","Apr 26, 2021",82.5,191933,2021-04-26
2550,Sold,keyboard…,anonymou…,"52Ξ ($114,978)","Apr 25, 2021",52,114978,2021-04-25
0410,Sold,Myph-Spa…,anonymou…,"27Ξ ($62,862)","Apr 25, 2021",27,62862,2021-04-25
9261,Sold,jmg,0x2d45db,"23.99Ξ ($55,834)","Apr 25, 2021",23.99,55834,2021-04-25
1778,Sold,0xae21e3,0x1dd49d,"19.99Ξ ($43,982)","Apr 25, 2021",19.99,43982,2021-04-25
9007,Sold,1700403,adaugell…,"20Ξ ($44,477)","Apr 25, 2021",20,44477,2021-04-25
6095,Sold,0x4960c4…,0x3b417f,"55Ξ ($123,601)","Apr 25, 2021",55,123601,2021-04-25
8508,Sold,0xef784c,0x841005,"21.25Ξ ($47,008)","Apr 25, 2021",21.25,47008,2021-04-25
3052,Sold,755965,9952039,"30Ξ ($67,680)","Apr 25, 2021",30,67680,2021-04-25
3755,Sold,0xef784c,tappy.et…,"53.50Ξ ($120,697)","Apr 25, 2021",53.5,120697,2021-04-25
2156,Sold,antagoni…,virtualb…,"29.98Ξ ($67,635)","Apr 24, 2021",29.98,67635,2021-04-24
2156,Sold,jmg,antagoni…,"25.98Ξ ($58,185)","Apr 24, 2021",25.98,58185,2021-04-24
4880,Sold,0x279679,12263111,"77Ξ ($175,290)","Apr 24, 2021",77,175290,2021-04-24
0907,Sold,755965,anonymou…,"36.50Ξ ($83,092)","Apr 24, 2021",36.5,83092,2021-04-24
0577,Sold,16706349,14906114,"28.80Ξ ($64,202)","Apr 24, 2021",28.8,64202,2021-04-24
5385,Sold,PlantDr,eivindkl…,"22Ξ ($49,043)","Apr 24, 2021",22,49043,2021-04-24
0407,Sold,0x1455f0,337252,"90Ξ ($200,556)","Apr 24, 2021",90,200556,2021-04-24
6802,Sold,11446499,5838432,"25.99Ξ ($57,916)","Apr 24, 2021",25.99,57916,2021-04-24
6802,Sold,14925702,11446499,"24Ξ ($57,886)","Apr 14, 2021",24,57886,2021-04-14
1618,Sold,0x05e709,5838432,"23.48Ξ ($52,586)","Apr 24, 2021",23.48,52586,2021-04-24
2241,Sold,cryptosa…,0xd9c61c,"19.69Ξ ($43,445)","Apr 24, 2021",19.69,43445,2021-04-24
1302,Sold,0x516358,8960905,"25Ξ ($55,688)","Apr 24, 2021",25,55688,2021-04-24
7887,Sold,0xc272ed,2717936,"32Ξ ($73,692)","Apr 24, 2021",32,73692,2021-04-24
1528,Sold,12192872,2985333,"37Ξ ($85,326)","Apr 24, 2021",37,85326,2021-04-24
4149,Sold,magicdhz…,0x2d8d75,"24.99Ξ ($57,630)","Apr 24, 2021",24.99,57630,2021-04-24
4149,Sold,0x5b098b,magicdhz…,"24.30Ξ ($52,610)","Apr 13, 2021",24.3,52610,2021-04-13
2248,Sold,7682848,2985333,"19.95Ξ ($46,007)","Apr 24, 2021",19.95,46007,2021-04-24
2248,Sold,755965,7682848,"19Ξ ($43,476)","Apr 20, 2021",19,43476,2021-04-20
8045,Sold,0xd94be5,957165,"32Ξ ($73,796)","Apr 24, 2021",32,73796,2021-04-24
2023,Sold,wookie.e…,0x74be0a,"20Ξ ($44,910)","Apr 24, 2021",20,44910,2021-04-24
7503,Sold,0x7a37a1,0x0e9aed,"27Ξ ($62,947)","Apr 24, 2021",27,62947,2021-04-24
5776,Sold,10937065,14717068,"21.96Ξ ($51,863)","Apr 23, 2021",21.96,51863,2021-04-23
6410,Sold,0x89fa22,tappy.et…,"48Ξ ($112,486)","Apr 23, 2021",48,112486,2021-04-23
6410,Sold,0x0b88fd,0x08ba5f,"39.50Ξ ($90,488)","Apr 21, 2021",39.5,90488,2021-04-21
6366,Sold,11691176,3826546,"20Ξ ($46,168)","Apr 23, 2021",20,46168,2021-04-23
7236,Sold,13401139,7910798,"49Ξ ($113,112)","Apr 23, 2021",49,113112,2021-04-23
5841,Sold,shilpixe…,wookie.e…,"70Ξ ($161,547)","Apr 23, 2021",70,161547,2021-04-23
2311,Sold,metakid,anonymou…,"69.69Ξ ($160,832)","Apr 23, 2021",69.69,160832,2021-04-23
6826,Sold,0x8c9a44,553331,"22Ξ ($51,218)","Apr 23, 2021",22,51218,2021-04-23
6826,Sold,0x57931d,9214532,"25Ξ ($56,780)","Apr 13, 2021",25,56780,2021-04-13
7745,Sold,0x034b46,0x450638,"30.97Ξ ($72,101)","Apr 23, 2021",30.97,72101,2021-04-23
7745,Sold,ashpool.…,0x034b46,"23Ξ ($49,668)","Apr 20, 2021",23,49668,2021-04-20
6948,Sold,0x0b88fd,7270967,"23.75Ξ ($55,292)","Apr 23, 2021",23.75,55292,2021-04-23
3059,Sold,0x516358,7270967,"24.50Ξ ($57,038)","Apr 23, 2021",24.5,57038,2021-04-23
5664,Sold,Deeze,0x0521a0,"23.99Ξ ($55,851)","Apr 23, 2021",23.99,55851,2021-04-23
5664,Sold,0xec4b06,Deeze,"21Ξ ($51,265)","Apr 15, 2021",21,51265,2021-04-15
8249,Sold,0x9113d4,0x6ef237,"21.40Ξ ($49,821)","Apr 23, 2021",21.4,49821,2021-04-23
2480,Sold,0x90b653,0x6ef237,"20.21Ξ ($47,051)","Apr 23, 2021",20.21,47051,2021-04-23
2647,Sold,9165252,7270967,"20.15Ξ ($46,911)","Apr 23, 2021",20.15,46911,2021-04-23
2647,Sold,755965,9165252,"19.75Ξ ($48,010)","Apr 15, 2021",19.75,48010,2021-04-15
9691,Sold,Pixls,0x6ef237,"20Ξ ($45,916)","Apr 23, 2021",20,45916,2021-04-23
6354,Sold,0x4e2a48,0x6ef237,"19.93Ξ ($45,755)","Apr 23, 2021",19.93,45755,2021-04-23
9490,Sold,chints,punkstha…,"19Ξ ($42,893)","Apr 23, 2021",19,42893,2021-04-23
2287,Sold,tonyherr…,0x1d34d0,"19.50Ξ ($44,022)","Apr 23, 2021",19.5,44022,2021-04-23
2287,Sold,0x052564,0xbae25a,"19.50Ξ ($48,118)","Apr 15, 2021",19.5,48118,2021-04-15
2462,Sold,Tschuuul…,0x577ebc,"25Ξ ($56,925)","Apr 23, 2021",25,56925,2021-04-23
2497,Sold,2433006,14574135,"27Ξ ($59,301)","Apr 23, 2021",27,59301,2021-04-23
8858,Sold,11976269,14574135,"22.97Ξ ($50,775)","Apr 23, 2021",22.97,50775,2021-04-23
7921,Sold,7293485,14574135,"29Ξ ($64,104)","Apr 23, 2021",29,64104,2021-04-23
7283,Sold,5734076,9952039,"27Ξ ($60,432)","Apr 23, 2021",27,60432,2021-04-23
1556,Sold,0xb813c6,0xe53ef2,"46.99Ξ ($105,174)","Apr 23, 2021",46.99,105174,2021-04-23
4680,Sold,0x429a06,brianx.e…,"71Ξ ($156,857)","Apr 23, 2021",71,156857,2021-04-23
4680,Sold,ashpool.…,0x429a06,"10.05Ξ ($21,924)","Apr 20, 2021",10.05,21924,2021-04-20
7098,Sold,point-gr…,0xde0b9c,"35Ξ ($83,139)","Apr 23, 2021",35,83139,2021-04-23
7098,Sold,0xc272ed,point-gr…,"33Ξ ($77,307)","Apr 14, 2021",33,77307,2021-04-14
9113,Sold,11387433,13427667,"28Ξ ($66,511)","Apr 23, 2021",28,66511,2021-04-23
3650,Sold,0xdef4ed,15031448,"24.69Ξ ($58,648)","Apr 23, 2021",24.69,58648,2021-04-23
3650,Sold,0x379133,14611693,"20.75Ξ ($51,635)","Apr 15, 2021",20.75,51635,2021-04-15
2488,Sold,natealex,anonymou…,"45Ξ ($108,545)","Apr 22, 2021",45,108545,2021-04-22
1116,Sold,tappy.et…,sbdave.e…,"49Ξ ($123,837)","Apr 22, 2021",49,123837,2021-04-22
4053,Sold,brianx.e…,0x555301,"21.50Ξ ($54,696)","Apr 22, 2021",21.5,54696,2021-04-22
4053,Sold,boywitht…,brianx.e…,"20.50Ξ ($51,928)","Apr 15, 2021",20.5,51928,2021-04-15
4053,Sold,0x8b51c1,boywitht…,"20.20Ξ ($47,664)","Apr 14, 2021",20.2,47664,2021-04-14
8936,Sold,Deeze,anonymou…,"30.99Ξ ($78,839)","Apr 22, 2021",30.99,78839,2021-04-22
3964,Sold,0x0e9aed,0x555301,"22.50Ξ ($57,240)","Apr 22, 2021",22.5,57240,2021-04-22
3964,Sold,whiterab…,0x0e9aed,"18.50Ξ ($44,347)","Apr 17, 2021",18.5,44347,2021-04-17
3623,Sold,TokenAng…,anonymou…,"68.88Ξ ($174,999)","Apr 22, 2021",68.88,174999,2021-04-22
6161,Sold,0x5f18f9,0x022039,"24Ξ ($60,975)","Apr 22, 2021",24,60975,2021-04-22
4089,Sold,brazy.et…,0x4322aa,"22.39Ξ ($56,885)","Apr 22, 2021",22.39,56885,2021-04-22
4089,Sold,0xd41d35,brazy.et…,"20.50Ξ ($50,585)","Apr 15, 2021",20.5,50585,2021-04-15
6879,Sold,0xf2907a,anonymou…,"28Ξ ($73,383)","Apr 22, 2021",28,73383,2021-04-22
0406,Sold,215878,anonymou…,"62.49Ξ ($163,775)","Apr 22, 2021",62.49,163775,2021-04-22
0406,Sold,16706349,0x034b46,"58.50Ξ ($136,469)","Apr 21, 2021",58.5,136469,2021-04-21
7917,Sold,0x3d826e,okboomer…,"31Ξ ($79,980)","Apr 22, 2021",31,79980,2021-04-22
2392,Sold,Ravachol,0x252d5e,"23.32Ξ ($60,165)","Apr 22, 2021",23.32,60165,2021-04-22
3150,Sold,0x62bdc6,0x565496,"18.97Ξ ($49,209)","Apr 22, 2021",18.97,49209,2021-04-22
3379,Sold,0x0e9aed,0xb0dc0c,"22.99Ξ ($59,059)","Apr 22, 2021",22.99,59059,2021-04-22
3379,Sold,0x0f045a,0x0e9aed,"20Ξ ($42,492)","Apr 18, 2021",20,42492,2021-04-18
9720,Sold,7650826,3286203,"22.99Ξ ($56,041)","Apr 22, 2021",22.99,56041,2021-04-22
9720,Sold,8238026,7650826,"21Ξ ($48,276)","Apr 14, 2021",21,48276,2021-04-14
9816,Sold,755965,9407303,"39.75Ξ ($96,471)","Apr 22, 2021",39.75,96471,2021-04-22
8978,Sold,0x556433,957165,"25Ξ ($60,170)","Apr 22, 2021",25,60170,2021-04-22
6115,Sold,0x379133,0x516358,"23Ξ ($55,356)","Apr 22, 2021",23,55356,2021-04-22
4153,Sold,3641651,6329904,"28Ξ ($67,390)","Apr 22, 2021",28,67390,2021-04-22
2572,Sold,0xf2907a,0xa2d76c,"41.99Ξ ($101,382)","Apr 22, 2021",41.99,101382,2021-04-22
6380,Sold,755965,16321490,"20Ξ ($47,390)","Apr 22, 2021",20,47390,2021-04-22
6634,Sold,0xc480fb,12196282,"150Ξ ($355,423)","Apr 22, 2021",150,355423,2021-04-22
8749,Sold,5734076,12196282,"25.99Ξ ($61,583)","Apr 22, 2021",25.99,61583,2021-04-22
7730,Sold,0x78b58e,0xba19ba,"23Ξ ($54,498)","Apr 22, 2021",23,54498,2021-04-22
7730,Sold,0x4551fd,0x78b58e,"21Ξ ($50,909)","Apr 15, 2021",21,50909,2021-04-15
6362,Sold,0x0b88fd,0xba19ba,"20.50Ξ ($48,575)","Apr 22, 2021",20.5,48575,2021-04-22
8481,Sold,13547068,16063749,"26.99Ξ ($63,868)","Apr 21, 2021",26.99,63868,2021-04-21
8481,Sold,6689278,13547068,"25Ξ ($60,515)","Apr 16, 2021",25,60515,2021-04-16
5349,Sold,12878075,12383369,"21.50Ξ ($50,975)","Apr 21, 2021",21.5,50975,2021-04-21
4325,Sold,owlman.e…,0x449c69,"21.49Ξ ($50,951)","Apr 21, 2021",21.49,50951,2021-04-21
0160,Sold,0x565496,2421360,"53Ξ ($127,403)","Apr 21, 2021",53,127403,2021-04-21
1075,Sold,0xf90bd2,0xbb1ec7,"31.98Ξ ($77,381)","Apr 21, 2021",31.98,77381,2021-04-21
1513,Sold,0x7a612b,12263111,"49.99Ξ ($120,959)","Apr 21, 2021",49.99,120959,2021-04-21
3229,Sold,10937065,beri.eth,"25.97Ξ ($62,839)","Apr 21, 2021",25.97,62839,2021-04-21
9678,Sold,0x7a37a1,0x0e9aed,"49Ξ ($118,564)","Apr 21, 2021",49,118564,2021-04-21
6803,Sold,0xa0efdc,0x50ec37,"29.92Ξ ($72,067)","Apr 21, 2021",29.92,72067,2021-04-21
0982,Sold,0xfeeb2d,12470407,"43.90Ξ ($106,383)","Apr 21, 2021",43.9,106383,2021-04-21
2006,Sold,215878,16305287,"23.99Ξ ($58,407)","Apr 21, 2021",23.99,58407,2021-04-21
2006,Sold,7310068,215878,"22.50Ξ ($52,331)","Apr 21, 2021",22.5,52331,2021-04-21
9225,Sold,0x492a62,0xeb8140,"51.40Ξ ($125,141)","Apr 21, 2021",51.4,125141,2021-04-21
9225,Sold,0x465126,0x492a62,"27.91Ξ ($67,031)","Apr 16, 2021",27.91,67031,2021-04-16
8647,Sold,11976269,8994572,"21.97Ξ ($53,586)","Apr 21, 2021",21.97,53586,2021-04-21
9079,Sold,0x3aeabb,beautifu…,"65Ξ ($158,009)","Apr 21, 2021",65,158009,2021-04-21
6716,Sold,tentacle…,0xf8cc87,"39.95Ξ ($95,177)","Apr 21, 2021",39.95,95177,2021-04-21
0801,Sold,Cry,0x464994,"19.50Ξ ($46,457)","Apr 21, 2021",19.5,46457,2021-04-21
0526,Sold,0xce9000,0x67edd0,"30Ξ ($71,472)","Apr 21, 2021",30,71472,2021-04-21
3833,Sold,wookie.e…,0x64756a,"38.33Ξ ($89,417)","Apr 21, 2021",38.33,89417,2021-04-21
3833,Sold,0xa80be8…,wookie.e…,"24.95Ξ ($59,126)","Apr 14, 2021",24.95,59126,2021-04-14
0490,Sold,0xfeeb2d,tappy.et…,"54.40Ξ ($126,905)","Apr 21, 2021",54.4,126905,2021-04-21
6644,Sold,957165,10381737,"25.99Ξ ($60,448)","Apr 21, 2021",25.99,60448,2021-04-21
4275,Sold,0x0b88fd,957165,"22.75Ξ ($52,117)","Apr 21, 2021",22.75,52117,2021-04-21
1802,Sold,Slats_et…,0x0e9aed,"59Ξ ($137,049)","Apr 20, 2021",59,137049,2021-04-20
9461,Sold,0x7a37a1,0x0e9aed,"44Ξ ($102,942)","Apr 20, 2021",44,102942,2021-04-20
7912,Sold,957165,14163805,"25.40Ξ ($59,425)","Apr 20, 2021",25.4,59425,2021-04-20
9539,Sold,0x7a37a1,3van.eth,"47Ξ ($108,593)","Apr 20, 2021",47,108593,2021-04-20
4740,Sold,0x671f71,0xbb1ec7,"36.75Ξ ($84,911)","Apr 20, 2021",36.75,84911,2021-04-20
0879,Sold,16706349,12263111,"31.50Ξ ($72,780)","Apr 20, 2021",31.5,72780,2021-04-20
1873,Sold,5734076,12263111,"27.99Ξ ($64,963)","Apr 20, 2021",27.99,64963,2021-04-20
1626,Sold,1682476,337252,"54.98Ξ ($127,604)","Apr 20, 2021",54.98,127604,2021-04-20
9117,Sold,0x8b4eac,0x8f3daa,"20Ξ ($46,418)","Apr 20, 2021",20,46418,2021-04-20
9932,Sold,0xcc7c33,anonymou…,"75Ξ ($170,329)","Apr 20, 2021",75,170329,2021-04-20
2350,Sold,anonymou…,0x0e9aed,"24Ξ ($54,505)","Apr 20, 2021",24,54505,2021-04-20
3520,Sold,anonymou…,0x6336fb,"22.25Ξ ($50,110)","Apr 20, 2021",22.25,50110,2021-04-20
2475,Sold,6689278,13547068,"45Ξ ($99,089)","Apr 20, 2021",45,99089,2021-04-20
3534,Sold,5529929,punksded…,"24.50Ξ ($53,949)","Apr 20, 2021",24.5,53949,2021-04-20
8636,Sold,6249972,4608294,"29Ξ ($64,321)","Apr 20, 2021",29,64321,2021-04-20
4407,Sold,Wilcox,0x83b00f,"25Ξ ($53,933)","Apr 20, 2021",25,53933,2021-04-20
6139,Sold,Wilcox,0x83b00f,"25Ξ ($53,933)","Apr 20, 2021",25,53933,2021-04-20
8744,Sold,644104,13812128,"29.99Ξ ($64,697)","Apr 20, 2021",29.99,64697,2021-04-20
5137,Sold,15975550,7299266,"1Ξ ($2,135)","Apr 20, 2021",1,2135,2021-04-20
5137,Sold,10673338,15975550,"23.20Ξ ($49,432)","Apr 20, 2021",23.2,49432,2021-04-20
3056,Sold,evantan.…,0xf8cc87,"31Ξ ($65,501)","Apr 20, 2021",31,65501,2021-04-20
9430,Sold,0x89eacd,0x0c3749,"22.90Ξ ($48,823)","Apr 20, 2021",22.9,48823,2021-04-20
9028,Sold,0xce7a9f,0x97db27,"96Ξ ($202,977)","Apr 20, 2021",96,202977,2021-04-20
6206,Sold,0x27c79a,0x0e9aed,"31.63Ξ ($66,877)","Apr 20, 2021",31.63,66877,2021-04-20
3126,Sold,CryptoIn…,0x449c69,"49.99Ξ ($105,696)","Apr 20, 2021",49.99,105696,2021-04-20
6844,Sold,4387831,337252,"68.44Ξ ($142,877)","Apr 20, 2021",68.44,142877,2021-04-20
7426,Sold,7293485,4496489,"74Ξ ($154,484)","Apr 20, 2021",74,154484,2021-04-20
2828,Sold,5734076,16740588,"43Ξ ($89,768)","Apr 20, 2021",43,89768,2021-04-20
6075,Sold,12878075,215878,"65Ξ ($135,695)","Apr 20, 2021",65,135695,2021-04-20
3453,Sold,0x304288,anonymou…,"55Ξ ($115,799)","Apr 20, 2021",55,115799,2021-04-20
1697,Sold,0x052564,0xf3016b,"26.50Ξ ($55,794)","Apr 20, 2021",26.5,55794,2021-04-20
6135,Sold,6811088,3550005,"59Ξ ($124,810)","Apr 20, 2021",59,124810,2021-04-20
9102,Sold,6689278,11996186,"37.75Ξ ($79,857)","Apr 20, 2021",37.75,79857,2021-04-20
2914,Sold,0x052564,0x53c52d,"28Ξ ($60,528)","Apr 20, 2021",28,60528,2021-04-20
8961,Sold,5734076,4496489,"25.99Ξ ($57,323)","Apr 19, 2021",25.99,57323,2021-04-19
3097,Sold,0x1a1f01,0x0e9aed,"22.99Ξ ($50,706)","Apr 19, 2021",22.99,50706,2021-04-19
9650,Sold,0x5f18f9,0x78b58e,"108Ξ ($238,202)","Apr 19, 2021",108,238202,2021-04-19
3419,Sold,0x33b17a,1411850,"24Ξ ($52,876)","Apr 19, 2021",24,52876,2021-04-19
8066,Sold,7293485,11996186,"95Ξ ($209,302)","Apr 19, 2021",95,209302,2021-04-19
8989,Sold,7293485,4496489,"33Ξ ($71,321)","Apr 19, 2021",33,71321,2021-04-19
5549,Sold,0xa2717a,darymore…,"23.99Ξ ($51,785)","Apr 19, 2021",23.99,51785,2021-04-19
3344,Sold,antagoni…,0x53c52d,"25Ξ ($53,965)","Apr 19, 2021",25,53965,2021-04-19
3344,Sold,TJ2010,antagoni…,"23Ξ ($50,592)","Apr 18, 2021",23,50592,2021-04-18
6032,Sold,Zonked,0xcfc505,"33.66Ξ ($72,658)","Apr 19, 2021",33.66,72658,2021-04-19
3567,Sold,10937065,4496489,"23.99Ξ ($51,785)","Apr 19, 2021",23.99,51785,2021-04-19
0240,Sold,Slats_et…,daddykal…,"50Ξ ($107,930)","Apr 19, 2021",50,107930,2021-04-19
2879,Sold,337252,6832288,"25Ξ ($53,136)","Apr 19, 2021",25,53136,2021-04-19
3696,Sold,0xb70c1a,dapppunk…,"27.90Ξ ($59,361)","Apr 19, 2021",27.9,59361,2021-04-19
6727,Sold,0x2b290f,4496489,"44Ξ ($93,616)","Apr 19, 2021",44,93616,2021-04-19
5492,Sold,5734076,11471615,"31Ξ ($68,374)","Apr 19, 2021",31,68374,2021-04-19
9017,Sold,Wilcox,0xbd21d1,"24.00Ξ ($52,933)","Apr 19, 2021",24,52933,2021-04-19
3237,Sold,11976269,13599745,"29.97Ξ ($67,442)","Apr 19, 2021",29.97,67442,2021-04-19
2484,Sold,0x54d7f9,0xab61cc,480Ξ ($1.08M),"Apr 19, 2021",480,1080000,2021-04-19
7910,Sold,0x54d7f9,0x18ee9c,"55Ξ ($123,767)","Apr 19, 2021",55,123767,2021-04-19
2743,Sold,6666831,14548427,"32.30Ξ ($72,685)","Apr 19, 2021",32.3,72685,2021-04-19
2743,Sold,5734076,6666831,"28.99Ξ ($62,693)","Apr 13, 2021",28.99,62693,2021-04-13
2513,Sold,5734076,15925611,"22.99Ξ ($51,504)","Apr 19, 2021",22.99,51504,2021-04-19
7919,Sold,12552954,sartoshi…,"25Ξ ($56,007)","Apr 19, 2021",25,56007,2021-04-19
7919,Sold,5734076,0xbf8afa,"27.49Ξ ($62,738)","Apr 13, 2021",27.49,62738,2021-04-13
5691,Sold,7293485,11996186,"33Ξ ($73,929)","Apr 19, 2021",33,73929,2021-04-19
4006,Sold,0x62bdc6,0xecba5f,"19.49Ξ ($43,725)","Apr 19, 2021",19.49,43725,2021-04-19
5676,Sold,15693900,4496489,"34Ξ ($76,277)","Apr 19, 2021",34,76277,2021-04-19
8176,Sold,0x6611fe,13886183,"19.25Ξ ($43,186)","Apr 19, 2021",19.25,43186,2021-04-19
5038,Sold,0x6611fe,13616389,"20Ξ ($44,869)","Apr 19, 2021",20,44869,2021-04-19
0702,Sold,0x62bdc6,0x2b82ad,"19.75Ξ ($44,217)","Apr 18, 2021",19.75,44217,2021-04-18
0702,Sold,0x4dea06,0x9747d4,"21Ξ ($45,210)","Apr 18, 2021",21,45210,2021-04-18
8474,Sold,0xe3bf86,runhot99…,"31.50Ξ ($70,070)","Apr 18, 2021",31.5,70070,2021-04-18
8474,Sold,0xc272ed,0xe3bf86,"30Ξ ($68,992)","Apr 13, 2021",30,68992,2021-04-13
8855,Sold,0xb6be4d,4496489,"22.97Ξ ($50,517)","Apr 18, 2021",22.97,50517,2021-04-18
8706,Sold,0xcded7e,0xb9fba8,"21.50Ξ ($47,285)","Apr 18, 2021",21.5,47285,2021-04-18
9139,Sold,11976269,4496489,"22.97Ξ ($50,517)","Apr 18, 2021",22.97,50517,2021-04-18
4561,Sold,12086668,2755403,"40Ξ ($85,998)","Apr 18, 2021",40,85998,2021-04-18
3978,Sold,7293485,14240741,"40Ξ ($86,115)","Apr 18, 2021",40,86115,2021-04-18
8197,Sold,5966219,5473365,"22.40Ξ ($48,225)","Apr 18, 2021",22.4,48225,2021-04-18
3081,Sold,0x62bdc6,0x18ee9c,"21.97Ξ ($47,217)","Apr 18, 2021",21.97,47217,2021-04-18
3081,Sold,0x1f5f63,0x8e564e,"21.50Ξ ($52,838)","Apr 16, 2021",21.5,52838,2021-04-16
3081,Sold,0x7d9e9a,0x1f5f63,"20.50Ξ ($48,628)","Apr 16, 2021",20.5,48628,2021-04-16
5262,Sold,0x4b4edb,2929717,"36Ξ ($76,485)","Apr 18, 2021",36,76485,2021-04-18
5926,Sold,0xef784c,0xcf8401,"58.75Ξ ($123,174)","Apr 18, 2021",58.75,123174,2021-04-18
9862,Sold,Shrugs,0x7774e9,"20.75Ξ ($44,410)","Apr 18, 2021",20.75,44410,2021-04-18
2306,Sold,0x483ec3,0xf8cc87,"461Ξ ($975,130)","Apr 18, 2021",461,975130,2021-04-18
3311,Sold,2671661,15023858,"29.50Ξ ($65,171)","Apr 18, 2021",29.5,65171,2021-04-18
9409,Sold,antagoni…,0xe53ef2,"27.27Ξ ($59,826)","Apr 18, 2021",27.27,59826,2021-04-18
2832,Sold,0x577ebc,0x6cab4d,"23Ξ ($49,743)","Apr 18, 2021",23,49743,2021-04-18
3606,Sold,0x5f5df4,14065268,"22.50Ξ ($51,540)","Apr 18, 2021",22.5,51540,2021-04-18
3386,Sold,0x407f0c,15462875,"25Ξ ($58,163)","Apr 18, 2021",25,58163,2021-04-18
1702,Sold,0x83b00f,0x1fe03a,"22.98Ξ ($54,751)","Apr 17, 2021",22.98,54751,2021-04-17
1702,Sold,0x54d7f9,0x83b00f,"20Ξ ($49,442)","Apr 17, 2021",20,49442,2021-04-17
7973,Sold,3387770,2292364,"75Ξ ($178,860)","Apr 17, 2021",75,178860,2021-04-17
6953,Sold,0x596572,wookie.e…,"19.80Ξ ($47,060)","Apr 17, 2021",19.8,47060,2021-04-17
9220,Sold,5712717,3550005,"32.50Ξ ($77,240)","Apr 17, 2021",32.5,77240,2021-04-17
3050,Sold,5642118,2390641,"21.90Ξ ($52,048)","Apr 17, 2021",21.9,52048,2021-04-17
3670,Sold,0xd94be5,0x2fabfc,"29.50Ξ ($70,038)","Apr 17, 2021",29.5,70038,2021-04-17
3670,Sold,0xec4b06,0xd94be5,"25.74Ξ ($63,706)","Apr 15, 2021",25.74,63706,2021-04-15
5778,Sold,6329904,957165,"31Ξ ($74,311)","Apr 17, 2021",31,74311,2021-04-17
9075,Sold,0x8e564e,0x4dea06,"21Ξ ($50,340)","Apr 17, 2021",21,50340,2021-04-17
6167,Sold,0x034b46,0xf8cc87,"22.99Ξ ($55,526)","Apr 17, 2021",22.99,55526,2021-04-17
6167,Sold,0xfb2036,0x034b46,"21.97Ξ ($53,894)","Apr 16, 2021",21.97,53894,2021-04-16
6518,Sold,5734076,16305287,"22.99Ξ ($55,526)","Apr 17, 2021",22.99,55526,2021-04-17
7354,Sold,0x052564,7091829,"22.50Ξ ($55,369)","Apr 17, 2021",22.5,55369,2021-04-17
8294,Sold,0xff70ec,0xb70c1a,"25.04Ξ ($61,901)","Apr 17, 2021",25.04,61901,2021-04-17
8294,Sold,Wilcox,0xff70ec,"25Ξ ($62,016)","Apr 17, 2021",25,62016,2021-04-17
9072,Sold,renaissa…,0x464994,"27.50Ξ ($67,983)","Apr 17, 2021",27.5,67983,2021-04-17
6855,Sold,6689278,4606356,"27.50Ξ ($68,302)","Apr 17, 2021",27.5,68302,2021-04-17
4512,Sold,0x7774e9,4606356,"22Ξ ($54,642)","Apr 17, 2021",22,54642,2021-04-17
4512,Sold,0x561786,7828713,"20.75Ξ ($51,708)","Apr 15, 2021",20.75,51708,2021-04-15
9189,Sold,0x0b7ab9,0x464994,"22Ξ ($54,642)","Apr 17, 2021",22,54642,2021-04-17
9189,Sold,0x8b51c1,0x0b7ab9,"20.20Ξ ($47,459)","Apr 14, 2021",20.2,47459,2021-04-14
5847,Sold,14540205,4606356,"22.99Ξ ($57,100)","Apr 17, 2021",22.99,57100,2021-04-17
3519,Sold,0xb70c1a,0x464994,"43Ξ ($106,800)","Apr 17, 2021",43,106800,2021-04-17
2713,Sold,0x3b7f24,2yeah.et…,"42Ξ ($104,316)","Apr 17, 2021",42,104316,2021-04-17
2745,Sold,957165,8124345,"33.50Ξ ($83,283)","Apr 17, 2021",33.5,83283,2021-04-17
2745,Sold,12743405,957165,"27Ξ ($62,093)","Apr 13, 2021",27,62093,2021-04-13
3914,Sold,daddykal…,0x8a3d2e,"35.88Ξ ($89,199)","Apr 17, 2021",35.88,89199,2021-04-17
9376,Sold,0x6611fe,🤹🏻‍♂.e…,"70Ξ ($174,024)","Apr 17, 2021",70,174024,2021-04-17
7255,Sold,0x18ee9c,0xd56c7a,"23.50Ξ ($58,167)","Apr 17, 2021",23.5,58167,2021-04-17
7255,Sold,0xc829ba,0x18ee9c,"19.88Ξ ($48,779)","Apr 16, 2021",19.88,48779,2021-04-16
0943,Sold,0xfeeb2d,11446499,"67Ξ ($164,492)","Apr 17, 2021",67,164492,2021-04-17
8876,Sold,11976269,1940804,"21.98Ξ ($53,265)","Apr 17, 2021",21.98,53265,2021-04-17
4862,Sold,14240741,5489965,"25Ξ ($61,439)","Apr 16, 2021",25,61439,2021-04-16
3699,Sold,0x0b88fd,notmycir…,"33.33Ξ ($81,910)","Apr 16, 2021",33.33,81910,2021-04-16
2502,Sold,0x023ef7,0x287b15,"42.50Ξ ($104,255)","Apr 16, 2021",42.5,104255,2021-04-16
5041,Sold,755965,3701497,"17.90Ξ ($43,329)","Apr 16, 2021",17.9,43329,2021-04-16
2168,Sold,0x0e9aed,0xbb1ec7,"22.99Ξ ($55,650)","Apr 16, 2021",22.99,55650,2021-04-16
2824,Sold,0x829a08,0x6c90fd,"21Ξ ($50,833)","Apr 16, 2021",21,50833,2021-04-16
1445,Sold,0x76fe8e,darymore…,"24.97Ξ ($60,562)","Apr 16, 2021",24.97,60562,2021-04-16
8144,Sold,0xdde0b7,0x44da37,"19.50Ξ ($47,470)","Apr 16, 2021",19.5,47470,2021-04-16
7864,Sold,0xe4446d,0x80e2df,"23.79Ξ ($57,423)","Apr 16, 2021",23.79,57423,2021-04-16
4988,Sold,stazie,0xf3016b,"33.33Ξ ($80,450)","Apr 16, 2021",33.33,80450,2021-04-16
9135,Sold,0xb6be4d,11268460,"23.97Ξ ($57,972)","Apr 16, 2021",23.97,57972,2021-04-16
0877,Sold,keyboard…,beautifu…,"85Ξ ($205,573)","Apr 16, 2021",85,205573,2021-04-16
4035,Sold,0x5e43e1,0x7bf7b9,"24Ξ ($57,840)","Apr 16, 2021",24,57840,2021-04-16
7564,Sold,beautifu…,0x087173,"18.50Ξ ($44,585)","Apr 16, 2021",18.5,44585,2021-04-16
6659,Sold,0x516358,0x7bf7b9,"22.80Ξ ($54,948)","Apr 16, 2021",22.8,54948,2021-04-16
6659,Sold,0x0e9aed,0x516358,"22.75Ξ ($55,183)","Apr 15, 2021",22.75,55183,2021-04-15
6659,Sold,0x62bdc6,0x0e9aed,"21Ξ ($47,695)","Apr 13, 2021",21,47695,2021-04-13
6008,Sold,0xec4b06,0xfefc28,"19.50Ξ ($46,256)","Apr 16, 2021",19.5,46256,2021-04-16
4023,Sold,0xec4b06,0xbb1ec7,"19.50Ξ ($46,730)","Apr 16, 2021",19.5,46730,2021-04-16
7645,Sold,0xa6f637,0x0ec348,"34.80Ξ ($83,396)","Apr 16, 2021",34.8,83396,2021-04-16
8641,Sold,0x380236,0xdde0b7,"22Ξ ($53,817)","Apr 16, 2021",22,53817,2021-04-16
8641,Sold,0x3e1e5d,0x380236,"21Ξ ($49,271)","Apr 14, 2021",21,49271,2021-04-14
9851,Sold,0x4f63c2,13003661,"24.50Ξ ($58,842)","Apr 16, 2021",24.5,58842,2021-04-16
0578,Sold,0xc5b066,0xc66b8d,"25.50Ξ ($61,243)","Apr 16, 2021",25.5,61243,2021-04-16
8621,Sold,5734076,10580271,"22.49Ξ ($53,819)","Apr 16, 2021",22.49,53819,2021-04-16
8932,Sold,6249972,12638511,"23.50Ξ ($58,492)","Apr 16, 2021",23.5,58492,2021-04-16
4821,Sold,5966219,5447921,"22.40Ξ ($56,296)","Apr 16, 2021",22.4,56296,2021-04-16
7665,Sold,0xc480fb,14240741,"80Ξ ($201,058)","Apr 16, 2021",80,201058,2021-04-16
6946,Sold,0x161f7c,345726,"21Ξ ($52,967)","Apr 16, 2021",21,52967,2021-04-16
4218,Sold,0x5b098b,3387770,"99Ξ ($249,701)","Apr 16, 2021",99,249701,2021-04-16
9326,Sold,14479911,15462875,"37.50Ξ ($95,330)","Apr 16, 2021",37.5,95330,2021-04-16
8268,Sold,0xd94be5,15462875,"29Ξ ($73,443)","Apr 16, 2021",29,73443,2021-04-16
4799,Sold,0xf51d05,0x561786,"35Ξ ($88,658)","Apr 15, 2021",35,88658,2021-04-15
5293,Sold,0xcb58b8,0xff70ec,"22Ξ ($55,728)","Apr 15, 2021",22,55728,2021-04-15
0698,Sold,0xfeeb2d,7910798,"62.50Ξ ($158,318)","Apr 15, 2021",62.5,158318,2021-04-15
8720,Sold,0x577ebc,7970411,"59.99Ξ ($149,281)","Apr 15, 2021",59.99,149281,2021-04-15
0891,Sold,16706349,15925611,"59Ξ ($146,817)","Apr 15, 2021",59,146817,2021-04-15
6429,Sold,Wilcox,0x9dd4d1,"20.15Ξ ($50,142)","Apr 15, 2021",20.15,50142,2021-04-15
3581,Sold,0xf2907a,brianx.e…,"29.50Ξ ($73,512)","Apr 15, 2021",29.5,73512,2021-04-15
8889,Sold,0x090d16,0x0e9aed,"82Ξ ($202,523)","Apr 15, 2021",82,202523,2021-04-15
8177,Sold,0xa8362a,0x811dfe,"19.95Ξ ($49,015)","Apr 15, 2021",19.95,49015,2021-04-15
1966,Sold,0x379133,wookie.e…,"18.50Ξ ($45,452)","Apr 15, 2021",18.5,45452,2021-04-15
2652,Sold,0x379133,wookie.e…,"18.25Ξ ($44,838)","Apr 15, 2021",18.25,44838,2021-04-15
2652,Sold,redlione…,0x379133,"20.49Ξ ($44,467)","Apr 13, 2021",20.49,44467,2021-04-13
8375,Sold,11976269,7121741,"21.98Ξ ($54,002)","Apr 15, 2021",21.98,54002,2021-04-15
8264,Sold,5734076,3899172,"33Ξ ($81,077)","Apr 15, 2021",33,81077,2021-04-15
4452,Sold,0xd3e2e7,0x024bcb,"40.67Ξ ($100,648)","Apr 15, 2021",40.67,100648,2021-04-15
6233,Sold,MadMax,0x94c1d7,"24.45Ξ ($60,514)","Apr 15, 2021",24.45,60514,2021-04-15
1520,Sold,9748951,957165,"27.50Ξ ($68,062)","Apr 15, 2021",27.5,68062,2021-04-15
9204,Sold,0xdfce59,dealwith…,"22.88Ξ ($56,458)","Apr 15, 2021",22.88,56458,2021-04-15
0550,Sold,16706349,7910798,"57Ξ ($140,651)","Apr 15, 2021",57,140651,2021-04-15
8395,Sold,👱‍♀.eth,0x516358,"30Ξ ($74,027)","Apr 15, 2021",30,74027,2021-04-15
3941,Sold,0xb155c5,0x18ee9c,"24Ξ ($59,221)","Apr 15, 2021",24,59221,2021-04-15
9370,Sold,0xb70c1a,dealwith…,"21.80Ξ ($53,109)","Apr 15, 2021",21.8,53109,2021-04-15
6572,Sold,stazie,dealwith…,"20.40Ξ ($49,698)","Apr 15, 2021",20.4,49698,2021-04-15
4117,Sold,0x561786,dealwith…,"20.25Ξ ($49,333)","Apr 15, 2021",20.25,49333,2021-04-15
2097,Sold,Cryptgo,0x67edd0,"32Ξ ($78,462)","Apr 15, 2021",32,78462,2021-04-15
9260,Sold,0xdef4ed,0xd390f2,"24.20Ξ ($59,776)","Apr 15, 2021",24.2,59776,2021-04-15
4826,Sold,0x3f744d,0xeb7e11,"22Ξ ($54,159)","Apr 15, 2021",22,54159,2021-04-15
0820,Sold,0x0ec348,sartoshi…,"22.33Ξ ($54,972)","Apr 15, 2021",22.33,54972,2021-04-15
7077,Sold,12743405,15925611,"29Ξ ($71,492)","Apr 15, 2021",29,71492,2021-04-15
1716,Sold,anonymou…,0x516358,"22.88Ξ ($56,455)","Apr 15, 2021",22.88,56455,2021-04-15
3395,Sold,0xbe0c0d,15633854,"38Ξ ($92,122)","Apr 15, 2021",38,92122,2021-04-15
0453,Sold,0xfeeb2d,4542973,"70Ξ ($169,793)","Apr 15, 2021",70,169793,2021-04-15
3114,Sold,0x0e9aed,0xc87c5a,"23.99Ξ ($58,190)","Apr 15, 2021",23.99,58190,2021-04-15
3114,Sold,0x62bdc6,0x0e9aed,"21.47Ξ ($49,376)","Apr 13, 2021",21.47,49376,2021-04-13
5352,Sold,0xc1d1d3,0x6f1174,"24.40Ξ ($59,131)","Apr 15, 2021",24.4,59131,2021-04-15
4147,Sold,5966219,13427184,"21Ξ ($50,891)","Apr 15, 2021",21,50891,2021-04-15
0622,Sold,16706349,6666831,"31.90Ξ ($77,413)","Apr 15, 2021",31.9,77413,2021-04-15
9506,Sold,0xb73307,0x0e9aed,"41Ξ ($99,497)","Apr 15, 2021",41,99497,2021-04-15
4601,Sold,0x0e9aed,0x6b9b01,"24.99Ξ ($60,663)","Apr 14, 2021",24.99,60663,2021-04-14
4792,Sold,0x3731a5,0xb4bb41,"20.24Ξ ($48,817)","Apr 14, 2021",20.24,48817,2021-04-14
9438,Sold,0xaea8e3,0x7774e9,"55Ξ ($129,043)","Apr 14, 2021",55,129043,2021-04-14
1991,Sold,0x8b4eac,🍄mario.…,"25Ξ ($57,949)","Apr 14, 2021",25,57949,2021-04-14
2379,Sold,0x3f1724,TokenAng…,"23Ξ ($53,314)","Apr 14, 2021",23,53314,2021-04-14
2636,Sold,0xf72360,TokenAng…,"36.60Ξ ($84,838)","Apr 14, 2021",36.6,84838,2021-04-14
2458,Sold,0x2f1cfe,0xab61cc,"21.99Ξ ($51,485)","Apr 14, 2021",21.99,51485,2021-04-14
1781,Sold,0x0e9aed,0x516358,"31.99Ξ ($74,502)","Apr 14, 2021",31.99,74502,2021-04-14
7554,Sold,0x609630,beautifu…,"27Ξ ($64,154)","Apr 14, 2021",27,64154,2021-04-14
0506,Sold,0x6336fb,0x8b087f,"31Ξ ($73,659)","Apr 14, 2021",31,73659,2021-04-14
2438,Sold,0xc272ed,beautifu…,"35Ξ ($81,993)","Apr 14, 2021",35,81993,2021-04-14
1041,Sold,0x78b58e,5333848,"27Ξ ($63,252)","Apr 14, 2021",27,63252,2021-04-14
9432,Sold,6249972,0x7a9fe2,"24.99Ξ ($58,543)","Apr 14, 2021",24.99,58543,2021-04-14
2440,Sold,5734076,14479911,"25Ξ ($58,466)","Apr 14, 2021",25,58466,2021-04-14
1719,Sold,15693900,4746584,"20Ξ ($46,773)","Apr 14, 2021",20,46773,2021-04-14
1719,Sold,4364806,15693900,"27Ξ ($64,043)","Apr 14, 2021",27,64043,2021-04-14
1719,Sold,15693900,4364806,"20.05Ξ ($47,558)","Apr 14, 2021",20.05,47558,2021-04-14
1564,Sold,antagoni…,0x2b290f,"26.50Ξ ($62,857)","Apr 14, 2021",26.5,62857,2021-04-14
6470,Sold,Deeze,renaissa…,"25.25Ξ ($60,378)","Apr 14, 2021",25.25,60378,2021-04-14
9073,Sold,755965,2717936,"22Ξ ($51,463)","Apr 14, 2021",22,51463,2021-04-14
3091,Sold,🤹🏻‍♂.e…,0x5320f1,"25Ξ ($58,736)","Apr 14, 2021",25,58736,2021-04-14
0553,Sold,0xfeeb2d,11231692,"59Ξ ($139,186)","Apr 14, 2021",59,139186,2021-04-14
1042,Sold,shilpixe…,richerd.…,"36Ξ ($85,312)","Apr 14, 2021",36,85312,2021-04-14
4320,Sold,TokenAng…,0x74be0a,"39.50Ξ ($93,607)","Apr 14, 2021",39.5,93607,2021-04-14
4003,Sold,0x2b290f,0x516358,"31Ξ ($73,463)","Apr 14, 2021",31,73463,2021-04-14
9082,Sold,2340107,1688420,"33.95Ξ ($79,662)","Apr 14, 2021",33.95,79662,2021-04-14
9445,Sold,0x0e9aed,12392881,"25.99Ξ ($60,984)","Apr 14, 2021",25.99,60984,2021-04-14
8947,Sold,0x267e95,14240741,"27Ξ ($61,898)","Apr 14, 2021",27,61898,2021-04-14
8947,Sold,0xc272ed,2522773,"25Ξ ($57,494)","Apr 13, 2021",25,57494,2021-04-13
3218,Sold,0x19c364,0x953a37,"21.50Ξ ($49,289)","Apr 14, 2021",21.5,49289,2021-04-14
6633,Sold,12878075,11446499,"55Ξ ($126,088)","Apr 14, 2021",55,126088,2021-04-14
4069,Sold,0x052564,0xab61cc,"22.50Ξ ($51,615)","Apr 14, 2021",22.5,51615,2021-04-14
5148,Sold,0xf36972,6412761,"65Ξ ($149,427)","Apr 14, 2021",65,149427,2021-04-14
5627,Sold,6689278,4164446,"65Ξ ($149,427)","Apr 14, 2021",65,149427,2021-04-14
0617,Sold,16706349,9352699,"63.50Ξ ($145,978)","Apr 14, 2021",63.5,145978,2021-04-14
2738,Sold,wookie.e…,0xfe0fb9,"21.99Ξ ($50,642)","Apr 14, 2021",21.99,50642,2021-04-14
8302,Sold,punkstha…,0x0e9aed,"32Ξ ($73,694)","Apr 14, 2021",32,73694,2021-04-14
6728,Sold,0xca37d8,0xaf812e,"29.50Ξ ($67,325)","Apr 13, 2021",29.5,67325,2021-04-13
2282,Sold,0x8b4eac,0xf82502,"30Ξ ($68,466)","Apr 13, 2021",30,68466,2021-04-13
0814,Sold,16706349,957165,"38Ξ ($86,724)","Apr 13, 2021",38,86724,2021-04-13
1874,Sold,0x12d36f,0x96a691,"29Ξ ($66,184)","Apr 13, 2021",29,66184,2021-04-13
4907,Sold,0x19f233,15462875,"37Ξ ($84,441)","Apr 13, 2021",37,84441,2021-04-13
4624,Sold,sbdave.e…,0x052564,"33Ξ ($75,312)","Apr 13, 2021",33,75312,2021-04-13
0457,Sold,CPyrc,0xf36972,"45Ξ ($102,699)","Apr 13, 2021",45,102699,2021-04-13
4994,Sold,0x7f6af0,0x2a1df0,"23Ξ ($52,894)","Apr 13, 2021",23,52894,2021-04-13
4945,Sold,0xaf812e,0xf3016b,"30Ξ ($68,992)","Apr 13, 2021",30,68992,2021-04-13
0784,Sold,0xfeeb2d,957165,"56Ξ ($128,786)","Apr 13, 2021",56,128786,2021-04-13
9046,Sold,0x23b50b,runhot99…,"52.50Ξ ($120,724)","Apr 13, 2021",52.5,120724,2021-04-13
4852,Sold,957165,12452063,"29.99Ξ ($67,841)","Apr 13, 2021",29.99,67841,2021-04-13
5985,Sold,0x7e1de5,11231692,"26.99Ξ ($62,104)","Apr 13, 2021",26.99,62104,2021-04-13
2000,Sold,0xc352b5,11231692,"120Ξ ($276,121)","Apr 13, 2021",120,276121,2021-04-13
3048,Sold,0x845ddd,Blockcha…,"26Ξ ($59,826)","Apr 13, 2021",26,59826,2021-04-13
3796,Sold,0x287b15,nftguild…,"22.20Ξ ($50,319)","Apr 13, 2021",22.2,50319,2021-04-13
7651,Sold,0x279679,11844417,"29Ξ ($65,733)","Apr 13, 2021",29,65733,2021-04-13
8091,Sold,0x62bdc6,0xb0f96a,"19.99Ξ ($45,401)","Apr 13, 2021",19.99,45401,2021-04-13
7668,Sold,Gmugr,0x73347b,"24.44Ξ ($55,508)","Apr 13, 2021",24.44,55508,2021-04-13
8113,Sold,0xef784c,0x1dc301,"29.99Ξ ($67,601)","Apr 13, 2021",29.99,67601,2021-04-13
0709,Sold,wookie.e…,beautifu…,"24Ξ ($54,099)","Apr 13, 2021",24,54099,2021-04-13
1613,Sold,seel.eth,0x0e9aed,"23.67Ξ ($53,355)","Apr 13, 2021",23.67,53355,2021-04-13
9027,Sold,0x8f8b47,1950465,"21.20Ξ ($47,787)","Apr 13, 2021",21.2,47787,2021-04-13
9449,Sold,Carlini8,0xf8cc87,"21.45Ξ ($48,351)","Apr 13, 2021",21.45,48351,2021-04-13
3491,Sold,0x4ea36c,wookie.e…,"52Ξ ($115,929)","Apr 13, 2021",52,115929,2021-04-13
6446,Sold,0x00b278,13139365,"21.40Ξ ($47,615)","Apr 13, 2021",21.4,47615,2021-04-13
0762,Sold,12800693,7401873,"70Ξ ($154,729)","Apr 13, 2021",70,154729,2021-04-13
1831,Sold,TokenAng…,0x279679,"85Ξ ($188,729)","Apr 13, 2021",85,188729,2021-04-13
9609,Sold,5966219,5560313,"25.90Ξ ($57,507)","Apr 13, 2021",25.9,57507,2021-04-13
7388,Sold,anonymou…,metam.et…,"23.75Ξ ($52,558)","Apr 13, 2021",23.75,52558,2021-04-13
5177,Sold,0xddfdcb,1688420,"31.99Ξ ($69,402)","Apr 13, 2021",31.99,69402,2021-04-13
9029,Sold,6249972,2717936,"24.50Ξ ($52,990)","Apr 13, 2021",24.5,52990,2021-04-13
2582,Sold,0xcd2c66,0x2978f0,"24.95Ξ ($54,000)","Apr 13, 2021",24.95,54000,2021-04-13
4036,Sold,0xa5c80b,yfimaxi.…,"26Ξ ($56,273)","Apr 13, 2021",26,56273,2021-04-13
2964,Sold,TokenAng…,0xab61cc,"305Ξ ($660,121)","Apr 13, 2021",305,660121,2021-04-13
2041,Sold,monopoly…,0xabf107,"55Ξ ($119,075)","Apr 13, 2021",55,119075,2021-04-13
4196,Sold,0x0e9aed,14150377,"24.75Ξ ($53,584)","Apr 13, 2021",24.75,53584,2021-04-13
0620,Sold,0x983ace,0x9852f8,"24.99Ξ ($54,103)","Apr 13, 2021",24.99,54103,2021-04-13
0568,Sold,0xc352b5,runhot99…,"39Ξ ($84,435)","Apr 13, 2021",39,84435,2021-04-13
3915,Sold,0xbff799,0xd2e760,"21.98Ξ ($47,700)","Apr 13, 2021",21.98,47700,2021-04-13
7045,Sold,0x62bdc6,16291784,"25Ξ ($53,954)","Apr 13, 2021",25,53954,2021-04-13
0642,Sold,0xfeeb2d,575616,"49.20Ξ ($106,181)","Apr 13, 2021",49.2,106181,2021-04-13
0648,Sold,16706349,957165,"37.60Ξ ($80,471)","Apr 13, 2021",37.6,80471,2021-04-13
0735,Sold,16706349,957165,"49.90Ξ ($106,795)","Apr 13, 2021",49.9,106795,2021-04-13
2986,Sold,0x62bdc6,0xd9fa29,"20.49Ξ ($43,852)","Apr 13, 2021",20.49,43852,2021-04-13
0000,Sold,0xf5099e,14715954,"25Ξ ($2,822)","Nov 30, 2018",25,2822,2018-11-30
0000,Sold,0x00d7c9,10528156,1.60Ξ ($386),"Jul 07, 2017",1.6,386,2017-07-07
0000,Sold,0xc352b5,55241,0.98Ξ ($320),"Jun 23, 2017",0.98,320,2017-06-23
0001,Sold,EliteCat…,0xcf6165,"60Ξ ($36,305)","Nov 30, 2020",60,36305,2020-11-30
0001,Sold,0xf5099e,GoWest23,"31Ξ ($5,155)","Apr 06, 2019",31,5155,2019-04-06
0001,Sold,0xc352b5,0xa0a59c,0.42Ξ ($107),"Jun 26, 2017",0.42,107,2017-06-26
0014,Sold,0x582fa7,0x7c00c9…,2.50Ξ ($234),"Dec 07, 2018",2.5,234,2018-12-07
0014,Sold,0xd8e806,0x582fa7,1.85Ξ ($351),"Jul 17, 2017",1.85,351,2017-07-17
0014,Sold,0xc352b5,0xd8e806,0.90Ξ ($185),"Jul 13, 2017",0.9,185,2017-07-13
0000,Sold,0xf5099e,14715954,"25Ξ ($2,822)","Nov 30, 2018",25,2822,2018-11-30
0000,Sold,0x00d7c9,10528156,1.60Ξ ($386),"Jul 07, 2017",1.6,386,2017-07-07
0000,Sold,0xc352b5,55241,0.98Ξ ($320),"Jun 23, 2017",0.98,320,2017-06-23
0001,Sold,EliteCat…,0xcf6165,"60Ξ ($36,305)","Nov 30, 2020",60,36305,2020-11-30
0001,Sold,0xf5099e,GoWest23,"31Ξ ($5,155)","Apr 06, 2019",31,5155,2019-04-06
0001,Sold,0xc352b5,0xa0a59c,0.42Ξ ($107),"Jun 26, 2017",0.42,107,2017-06-26
0089,Sold,jmg,TokenAng…,"19.99Ξ ($6,898)","Sep 06, 2020",19.99,6898,2020-09-06
0089,Sold,0x052564,jmg,"20Ξ ($4,138)","May 28, 2020",20,4138,2020-05-28
0089,Sold,0xc352b5,0xd8e806,1.50Ξ ($336),"Jul 12, 2017",1.5,336,2017-07-12
0169,Sold,Slats_et…,0x2e5ccf,"45Ξ ($95,175)","Apr 10, 2021",45,95175,2021-04-10
0169,Sold,Pranksy,Slats_et…,"6.99Ξ ($1,447)","May 28, 2020",6.99,1447,2020-05-28
0169,Sold,0xc352b5,Pranksy,1Ξ ($127),"Jan 02, 2020",1,127,2020-01-02
0089,Sold,jmg,TokenAng…,"19.99Ξ ($6,898)","Sep 06, 2020",19.99,6898,2020-09-06
0089,Sold,0x052564,jmg,"20Ξ ($4,138)","May 28, 2020",20,4138,2020-05-28
0089,Sold,0xc352b5,0xd8e806,1.50Ξ ($336),"Jul 12, 2017",1.5,336,2017-07-12
0249,Sold,0xc352b5,sov,0.95Ξ ($229),"Jul 07, 2017",0.95,229,2017-07-07
0329,Sold,0x89eacd,snax,"24.90Ξ ($37,680)","Feb 27, 2021",24.9,37680,2021-02-27
0329,Sold,0x07c5ea,0x89eacd,"22.95Ξ ($38,774)","Feb 24, 2021",22.95,38774,2021-02-24
0329,Sold,Pranksy,0x07c5ea,"24.99Ξ ($44,567)","Feb 22, 2021",24.99,44567,2021-02-22
0249,Sold,0xc352b5,sov,0.95Ξ ($229),"Jul 07, 2017",0.95,229,2017-07-07
0169,Sold,Slats_et…,0x2e5ccf,"45Ξ ($95,175)","Apr 10, 2021",45,95175,2021-04-10
0169,Sold,Pranksy,Slats_et…,"6.99Ξ ($1,447)","May 28, 2020",6.99,1447,2020-05-28
0169,Sold,0xc352b5,Pranksy,1Ξ ($127),"Jan 02, 2020",1,127,2020-01-02
0509,Sold,0xf2907a,0x324f6e,"21Ξ ($44,902)","Apr 11, 2021",21,44902,2021-04-11
0509,Sold,CPyrc,0xd79165,"19.95Ξ ($41,237)","Apr 08, 2021",19.95,41237,2021-04-08
0509,Sold,Pranksy,CPyrc,"18.50Ξ ($33,610)","Mar 30, 2021",18.5,33610,2021-03-30
0259,Sold,12008756,2557756,"24.75Ξ ($52,506)","Apr 06, 2021",24.75,52506,2021-04-06
0259,Sold,7703244,12008756,"18.50Ξ ($33,714)","Mar 09, 2021",18.5,33714,2021-03-09
0549,Sold,0xc352b5,6689278,0.75Ξ ($154),"Jul 10, 2017",0.75,154,2017-07-10
0709,Sold,0x810ccb,wookie.e…,"20.25Ξ ($36,734)","Mar 20, 2021",20.25,36734,2021-03-20
0639,Sold,0x3e1e5d,0x4dea06,"20.50Ξ ($42,617)","Apr 09, 2021",20.5,42617,2021-04-09
0639,Sold,0x494508,0x3e1e5d,"20Ξ ($40,957)","Apr 08, 2021",20,40957,2021-04-08
0639,Sold,0xdde0b7,0x494508,"14.50Ξ ($28,739)","Apr 07, 2021",14.5,28739,2021-04-07
0639,Sold,0x7d9e9a,0xdde0b7,"15Ξ ($31,134)","Apr 04, 2021",15,31134,2021-04-04
0639,Sold,0x380236,0x7d9e9a,"17Ξ ($34,895)","Apr 03, 2021",17,34895,2021-04-03
0639,Sold,0x9747d4,0x380236,"15.50Ξ ($32,577)","Apr 03, 2021",15.5,32577,2021-04-03
0639,Sold,0x6ec30f,wookie.e…,"20.99Ξ ($38,872)","Mar 20, 2021",20.99,38872,2021-03-20
0639,Sold,0xe1d29d,0x6ec30f,"21Ξ ($37,839)","Mar 18, 2021",21,37839,2021-03-18
0729,Sold,Pranksy,0x51636d,"26.99Ξ ($48,011)","Mar 11, 2021",26.99,48011,2021-03-11
0819,Sold,Deeze,0xdadbfa,"14Ξ ($26,041)","Feb 13, 2021",14,26041,2021-02-13
0819,Sold,0xc352b5,Deeze,"12Ξ ($21,022)","Feb 09, 2021",12,21022,2021-02-09
1829,Sold,0xa7bd74,0x4dfac3,"21.99Ξ ($34,661)","Mar 25, 2021",21.99,34661,2021-03-25
1829,Sold,0x6ec30f,0xa7bd74,"20.42Ξ ($36,427)","Mar 21, 2021",20.42,36427,2021-03-21
1829,Sold,🍄mario.…,0x6ec30f,"23.47Ξ ($41,838)","Mar 17, 2021",23.47,41838,2021-03-17
1829,Sold,0x577ebc,🍄mario.…,"19Ξ ($33,165)","Mar 08, 2021",19,33165,2021-03-08
1509,Sold,Goop,Catdog,0.68Ξ ($138),"May 14, 2020",0.68,138,2020-05-14
1509,Sold,0xe45df5,Goop,0.65Ξ ($114),"Jan 19, 2020",0.65,114,2020-01-19
2109,Sold,Hemba,0x8adbff,0.16Ξ ($115),"Dec 13, 2017",0.16,115,2017-12-13
2259,Sold,1742511,393680,1.99Ξ ($753),"Sep 15, 2020",1.99,753,2020-09-15
2259,Sold,5331586,6781763,0.24Ξ ($66),"Jul 03, 2017",0.24,66,2017-07-03
1769,Sold,0x13816f,0x8c9fcc,"8Ξ ($14,549)","Feb 14, 2021",8,14549,2021-02-14
1769,Sold,CPyrc,0x13816f,"5.59Ξ ($1,945)","Oct 04, 2020",5.59,1945,2020-10-04
1769,Sold,Hemba,KittyGr_…,0.08Ξ ($45),"Jun 08, 2018",0.08,45,2018-06-08
2249,Sold,shilpixe…,0x1f8add,"9.50Ξ ($1,848)","Apr 26, 2020",9.5,1848,2020-04-26
2249,Sold,0xd8e806,shilpixe…,1.07Ξ ($372),"Aug 28, 2017",1.07,372,2017-08-28
2249,Sold,0x00bd3a,0xd8e806,1.49Ξ ($252),"Jul 15, 2017",1.49,252,2017-07-15
2249,Sold,0x5462de,0x00bd3a,1Ξ ($269),"Jul 04, 2017",1,269,2017-07-04
2049,Sold,0xa3cb30,simontay…,"12.50Ξ ($4,773)","Oct 14, 2020",12.5,4773,2020-10-14
2389,Sold,Pranksy,AZonneve…,1.49Ξ ($303),"May 25, 2020",1.49,303,2020-05-25
2389,Sold,0x00d7c9,Pranksy,0.40Ξ ($109),"Jun 20, 2019",0.4,109,2019-06-20
2729,Sold,Carlini8,PB,2Ξ ($419),"May 17, 2020",2,419,2020-05-17
2729,Sold,0x8ba3e2,Carlini8,0.80Ξ ($102),"Jan 03, 2020",0.8,102,2020-01-03
2729,Sold,0x00d7c9,0x8ba3e2,0.10Ξ ($29),"Nov 01, 2017",0.1,29,2017-11-01
2529,Sold,0x7ea6df,0x032bc4,"16.70Ξ ($32,745)","Feb 21, 2021",16.7,32745,2021-02-21
2529,Sold,Hemba,0x7ea6df,0.77Ξ ($154),"May 16, 2020",0.77,154,2020-05-16
2709,Sold,14966261,10361245,0.25Ξ ($21),"Dec 16, 2018",0.25,21,2018-12-16
2889,Sold,7293485,12604552,"81Ξ ($146,979)","Mar 08, 2021",81,146979,2021-03-08
3069,Sold,Hemba,hedonism…,0.33Ξ ($49),"Feb 22, 2019",0.33,49,2019-02-22
3249,Sold,10734384,9420817,"7.50Ξ ($13,046)","Feb 10, 2021",7.5,13046,2021-02-10
2099,Sold,10895823,0xa80be8…,0.50Ξ ($266),"Jun 11, 2018",0.5,266,2018-06-11
2099,Sold,15208112,0xa641cf,0.15Ξ ($63),"Dec 07, 2017",0.15,63,2017-12-07
2099,Sold,14215174,0xe80eb0,0.11Ξ ($31),"Sep 23, 2017",0.11,31,2017-09-23
2289,Sold,0x052564,TJ2010,"5Ξ ($1,882)","Sep 15, 2020",5,1882,2020-09-15
2289,Sold,Hemba,0xd8e806,0.38Ξ ($71),"Jul 11, 2017",0.38,71,2017-07-11
2669,Sold,Hemba,whiterab…,1.40Ξ ($519),"Sep 12, 2020",1.4,519,2020-09-12
3049,Sold,Deeze,0xe9e7b8,"7.19Ξ ($3,429)","Nov 19, 2020",7.19,3429,2020-11-19
3049,Sold,0xa3cb30,Deeze,"7Ξ ($2,387)","Oct 07, 2020",7,2387,2020-10-07
3239,Sold,0x0ee062,0xeed4ab,"21Ξ ($38,177)","Mar 12, 2021",21,38177,2021-03-12
3239,Sold,Hemba,0x0ee062,0.13Ξ ($26),"Oct 31, 2018",0.13,26,2018-10-31
3429,Sold,Pranksy,0xd07ee1,0.70Ξ ($131),"Aug 21, 2019",0.7,131,2019-08-21
3429,Sold,0x00d7c9,Pranksy,0.40Ξ ($118),"Jun 21, 2019",0.4,118,2019-06-21
3619,Sold,Cyborg,0x94c1d7,0.17Ξ ($122),"Dec 17, 2017",0.17,122,2017-12-17
3619,Sold,0xbc081c,Cyborg,0.15Ξ ($44),"Sep 29, 2017",0.15,44,2017-09-29
2209,Sold,0x0713a6,snowfro,"15Ξ ($9,341)","Dec 23, 2020",15,9341,2020-12-23
2209,Sold,antunes_…,0x0713a6,1.20Ξ ($230),"May 12, 2020",1.2,230,2020-05-12
2209,Sold,0xb6be4d,antunes_…,0.90Ξ ($115),"Mar 14, 2020",0.9,115,2020-03-14
2609,Sold,13516492,6797282,"36Ξ ($69,026)","Mar 13, 2021",36,69026,2021-03-13
2609,Sold,15840856,7348023,"19Ξ ($32,915)","Feb 15, 2021",19,32915,2021-02-15
2609,Sold,10734384,15840856,"9.50Ξ ($17,264)","Feb 14, 2021",9.5,17264,2021-02-14
2809,Sold,12322844,5772875,0.30Ξ ($58),"Jul 19, 2017",0.3,58,2017-07-19
3009,Sold,337252,7348023,"99Ξ ($157,029)","Feb 25, 2021",99,157029,2021-02-25
3409,Sold,0x51636d,426773,"28Ξ ($49,680)","Mar 12, 2021",28,49680,2021-03-12
3409,Sold,0x74be0a,5333869,"28Ξ ($41,279)","Mar 05, 2021",28,41279,2021-03-05
3409,Sold,0xc272ed,7650826,"17Ξ ($34,135)","Feb 20, 2021",17,34135,2021-02-20
3609,Sold,0x4eb676,0x8847be,"375Ξ ($683,055)","Mar 29, 2021",375,683055,2021-03-29
3609,Sold,0xef466e,0x4eb676,"369Ξ ($565,998)","Mar 05, 2021",369,565998,2021-03-05
4009,Sold,jmg,Tschuuul…,0.47Ξ ($80),"Sep 25, 2019",0.47,80,2019-09-25
4009,Sold,0xd8e806,0x00bd3a,0.35Ξ ($68),"Jul 19, 2017",0.35,68,2017-07-19
4009,Sold,Hemba,0xd8e806,0.06Ξ ($12),"Jul 11, 2017",0.06,12,2017-07-11
2109,Sold,Hemba,0x8adbff,0.16Ξ ($115),"Dec 13, 2017",0.16,115,2017-12-13
2319,Sold,55241,7435267,0.05Ξ ($26),"May 28, 2018",0.05,26,2018-05-28
2529,Sold,0x7ea6df,0x032bc4,"16.70Ξ ($32,745)","Feb 21, 2021",16.7,32745,2021-02-21
2529,Sold,Hemba,0x7ea6df,0.77Ξ ($154),"May 16, 2020",0.77,154,2020-05-16
2739,Sold,0xe5e771,hahah.et…,"6.75Ξ ($11,814)","Feb 09, 2021",6.75,11814,2021-02-09
2739,Sold,Pranksy,0xe5e771,2.19Ξ ($719),"Sep 24, 2020",2.19,719,2020-09-24
2739,Sold,Hemba,Pranksy,1.80Ξ ($613),"Sep 22, 2020",1.8,613,2020-09-22
2949,Sold,NFTinTin,Liber8Ho…,"12.12Ξ ($4,454)","Oct 17, 2020",12.12,4454,2020-10-17
2949,Sold,0xfb077c,NFTinTin,1Ξ ($130),"Jan 02, 2020",1,130,2020-01-02
3159,Sold,Lumberg,qiwave,1.43Ξ ($315),"Jun 28, 2020",1.43,315,2020-06-28
3159,Sold,barthazi…,Lumberg,0.99Ξ ($240),"Jun 23, 2020",0.99,240,2020-06-23
3159,Sold,0x27c79a,barthazi…,0.55Ξ ($69),"Mar 30, 2020",0.55,69,2020-03-30
3159,Sold,Pranksy,0x27c79a,0.50Ξ ($72),"Jan 07, 2020",0.5,72,2020-01-07
3159,Sold,0x00d7c9,Pranksy,0.40Ξ ($109),"Jun 20, 2019",0.4,109,2019-06-20
3369,Sold,flipper_,WuTangCl…,"5.58Ξ ($1,939)","Oct 04, 2020",5.58,1939,2020-10-04
3369,Sold,redlione…,flipper_,"4.79Ξ ($1,741)","Sep 28, 2020",4.79,1741,2020-09-28
3369,Sold,0x11c9a7,redlione…,"4.20Ξ ($1,503)","Sep 28, 2020",4.2,1503,2020-09-28
3369,Sold,PM_disco…,0x11c9a7,"3.90Ξ ($1,395)","Sep 28, 2020",3.9,1395,2020-09-28
3369,Sold,Hemba,PM_disco…,1.80Ξ ($667),"Sep 20, 2020",1.8,667,2020-09-20
3999,Sold,Hemba,Kenney,0.15Ξ ($57),"Apr 04, 2018",0.15,57,2018-04-04
4209,Sold,0xbac42c,0x392d47,"24Ξ ($49,959)","Apr 09, 2021",24,49959,2021-04-09
4209,Sold,0x51357b,0xd35bd3,"3.75Ξ ($1,326)","Sep 26, 2020",3.75,1326,2020-09-26
4209,Sold,Hemba,0x51357b,1.25Ξ ($363),"Jul 25, 2020",1.25,363,2020-07-25
4419,Sold,0x_NFT,WuTangCl…,"4.25Ξ ($1,491)","Oct 08, 2020",4.25,1491,2020-10-08
4419,Sold,MrNFT,0x_NFT,"2.98Ξ ($1,027)","Sep 25, 2020",2.98,1027,2020-09-25
4419,Sold,Pranksy,MrNFT,2.75Ξ ($949),"Sep 25, 2020",2.75,949,2020-09-25
4419,Sold,Hemba,Pranksy,2.30Ξ ($796),"Sep 24, 2020",2.3,796,2020-09-24
2209,Sold,0x0713a6,snowfro,"15Ξ ($9,341)","Dec 23, 2020",15,9341,2020-12-23
2209,Sold,antunes_…,0x0713a6,1.20Ξ ($230),"May 12, 2020",1.2,230,2020-05-12
2209,Sold,0xb6be4d,antunes_…,0.90Ξ ($115),"Mar 14, 2020",0.9,115,2020-03-14
0169,Sold,Slats_et…,0x2e5ccf,"45Ξ ($95,175)","Apr 10, 2021",45,95175,2021-04-10
0169,Sold,Pranksy,Slats_et…,"6.99Ξ ($1,447)","May 28, 2020",6.99,1447,2020-05-28
0169,Sold,0xc352b5,Pranksy,1Ξ ($127),"Jan 02, 2020",1,127,2020-01-02
0089,Sold,jmg,TokenAng…,"19.99Ξ ($6,898)","Sep 06, 2020",19.99,6898,2020-09-06
0089,Sold,0x052564,jmg,"20Ξ ($4,138)","May 28, 2020",20,4138,2020-05-28
0089,Sold,0xc352b5,0xd8e806,1.50Ξ ($336),"Jul 12, 2017",1.5,336,2017-07-12
0249,Sold,0xc352b5,sov,0.95Ξ ($229),"Jul 07, 2017",0.95,229,2017-07-07
0329,Sold,0x89eacd,snax,"24.90Ξ ($37,680)","Feb 27, 2021",24.9,37680,2021-02-27
0329,Sold,0x07c5ea,0x89eacd,"22.95Ξ ($38,774)","Feb 24, 2021",22.95,38774,2021-02-24
0329,Sold,Pranksy,0x07c5ea,"24.99Ξ ($44,567)","Feb 22, 2021",24.99,44567,2021-02-22
0249,Sold,0xc352b5,sov,0.95Ξ ($229),"Jul 07, 2017",0.95,229,2017-07-07
0169,Sold,Slats_et…,0x2e5ccf,"45Ξ ($95,175)","Apr 10, 2021",45,95175,2021-04-10
0169,Sold,Pranksy,Slats_et…,"6.99Ξ ($1,447)","May 28, 2020",6.99,1447,2020-05-28
0169,Sold,0xc352b5,Pranksy,1Ξ ($127),"Jan 02, 2020",1,127,2020-01-02
0509,Sold,0xf2907a,0x324f6e,"21Ξ ($44,902)","Apr 11, 2021",21,44902,2021-04-11
0509,Sold,CPyrc,0xd79165,"19.95Ξ ($41,237)","Apr 08, 2021",19.95,41237,2021-04-08
0509,Sold,Pranksy,CPyrc,"18.50Ξ ($33,610)","Mar 30, 2021",18.5,33610,2021-03-30
0259,Sold,12008756,2557756,"24.75Ξ ($52,506)","Apr 06, 2021",24.75,52506,2021-04-06
0259,Sold,7703244,12008756,"18.50Ξ ($33,714)","Mar 09, 2021",18.5,33714,2021-03-09
0549,Sold,0xc352b5,6689278,0.75Ξ ($154),"Jul 10, 2017",0.75,154,2017-07-10
0709,Sold,0x810ccb,wookie.e…,"20.25Ξ ($36,734)","Mar 20, 2021",20.25,36734,2021-03-20
0639,Sold,0x3e1e5d,0x4dea06,"20.50Ξ ($42,617)","Apr 09, 2021",20.5,42617,2021-04-09
0639,Sold,0x494508,0x3e1e5d,"20Ξ ($40,957)","Apr 08, 2021",20,40957,2021-04-08
0639,Sold,0xdde0b7,0x494508,"14.50Ξ ($28,739)","Apr 07, 2021",14.5,28739,2021-04-07
0639,Sold,0x7d9e9a,0xdde0b7,"15Ξ ($31,134)","Apr 04, 2021",15,31134,2021-04-04
0639,Sold,0x380236,0x7d9e9a,"17Ξ ($34,895)","Apr 03, 2021",17,34895,2021-04-03
0639,Sold,0x9747d4,0x380236,"15.50Ξ ($32,577)","Apr 03, 2021",15.5,32577,2021-04-03
0639,Sold,0x6ec30f,wookie.e…,"20.99Ξ ($38,872)","Mar 20, 2021",20.99,38872,2021-03-20
0639,Sold,0xe1d29d,0x6ec30f,"21Ξ ($37,839)","Mar 18, 2021",21,37839,2021-03-18
0729,Sold,Pranksy,0x51636d,"26.99Ξ ($48,011)","Mar 11, 2021",26.99,48011,2021-03-11
0819,Sold,Deeze,0xdadbfa,"14Ξ ($26,041)","Feb 13, 2021",14,26041,2021-02-13
0819,Sold,0xc352b5,Deeze,"12Ξ ($21,022)","Feb 09, 2021",12,21022,2021-02-09
1829,Sold,0xa7bd74,0x4dfac3,"21.99Ξ ($34,661)","Mar 25, 2021",21.99,34661,2021-03-25
1829,Sold,0x6ec30f,0xa7bd74,"20.42Ξ ($36,427)","Mar 21, 2021",20.42,36427,2021-03-21
1829,Sold,🍄mario.…,0x6ec30f,"23.47Ξ ($41,838)","Mar 17, 2021",23.47,41838,2021-03-17
1829,Sold,0x577ebc,🍄mario.…,"19Ξ ($33,165)","Mar 08, 2021",19,33165,2021-03-08
1509,Sold,Goop,Catdog,0.68Ξ ($138),"May 14, 2020",0.68,138,2020-05-14
1509,Sold,0xe45df5,Goop,0.65Ξ ($114),"Jan 19, 2020",0.65,114,2020-01-19
2109,Sold,Hemba,0x8adbff,0.16Ξ ($115),"Dec 13, 2017",0.16,115,2017-12-13
2259,Sold,1742511,393680,1.99Ξ ($753),"Sep 15, 2020",1.99,753,2020-09-15
2259,Sold,5331586,6781763,0.24Ξ ($66),"Jul 03, 2017",0.24,66,2017-07-03
1769,Sold,0x13816f,0x8c9fcc,"8Ξ ($14,549)","Feb 14, 2021",8,14549,2021-02-14
1769,Sold,CPyrc,0x13816f,"5.59Ξ ($1,945)","Oct 04, 2020",5.59,1945,2020-10-04
1769,Sold,Hemba,KittyGr_…,0.08Ξ ($45),"Jun 08, 2018",0.08,45,2018-06-08
2249,Sold,shilpixe…,0x1f8add,"9.50Ξ ($1,848)","Apr 26, 2020",9.5,1848,2020-04-26
2249,Sold,0xd8e806,shilpixe…,1.07Ξ ($372),"Aug 28, 2017",1.07,372,2017-08-28
2249,Sold,0x00bd3a,0xd8e806,1.49Ξ ($252),"Jul 15, 2017",1.49,252,2017-07-15
2249,Sold,0x5462de,0x00bd3a,1Ξ ($269),"Jul 04, 2017",1,269,2017-07-04
2049,Sold,0xa3cb30,simontay…,"12.50Ξ ($4,773)","Oct 14, 2020",12.5,4773,2020-10-14
2389,Sold,Pranksy,AZonneve…,1.49Ξ ($303),"May 25, 2020",1.49,303,2020-05-25
2389,Sold,0x00d7c9,Pranksy,0.40Ξ ($109),"Jun 20, 2019",0.4,109,2019-06-20
2729,Sold,Carlini8,PB,2Ξ ($419),"May 17, 2020",2,419,2020-05-17
2729,Sold,0x8ba3e2,Carlini8,0.80Ξ ($102),"Jan 03, 2020",0.8,102,2020-01-03
2729,Sold,0x00d7c9,0x8ba3e2,0.10Ξ ($29),"Nov 01, 2017",0.1,29,2017-11-01
2529,Sold,0x7ea6df,0x032bc4,"16.70Ξ ($32,745)","Feb 21, 2021",16.7,32745,2021-02-21
2529,Sold,Hemba,0x7ea6df,0.77Ξ ($154),"May 16, 2020",0.77,154,2020-05-16
2709,Sold,14966261,10361245,0.25Ξ ($21),"Dec 16, 2018",0.25,21,2018-12-16
2889,Sold,7293485,12604552,"81Ξ ($146,979)","Mar 08, 2021",81,146979,2021-03-08
3069,Sold,Hemba,hedonism…,0.33Ξ ($49),"Feb 22, 2019",0.33,49,2019-02-22
3249,Sold,10734384,9420817,"7.50Ξ ($13,046)","Feb 10, 2021",7.5,13046,2021-02-10
2099,Sold,10895823,0xa80be8…,0.50Ξ ($266),"Jun 11, 2018",0.5,266,2018-06-11
2099,Sold,15208112,0xa641cf,0.15Ξ ($63),"Dec 07, 2017",0.15,63,2017-12-07
2099,Sold,14215174,0xe80eb0,0.11Ξ ($31),"Sep 23, 2017",0.11,31,2017-09-23
2289,Sold,0x052564,TJ2010,"5Ξ ($1,882)","Sep 15, 2020",5,1882,2020-09-15
2289,Sold,Hemba,0xd8e806,0.38Ξ ($71),"Jul 11, 2017",0.38,71,2017-07-11
2669,Sold,Hemba,whiterab…,1.40Ξ ($519),"Sep 12, 2020",1.4,519,2020-09-12
3049,Sold,Deeze,0xe9e7b8,"7.19Ξ ($3,429)","Nov 19, 2020",7.19,3429,2020-11-19
3049,Sold,0xa3cb30,Deeze,"7Ξ ($2,387)","Oct 07, 2020",7,2387,2020-10-07
3239,Sold,0x0ee062,0xeed4ab,"21Ξ ($38,177)","Mar 12, 2021",21,38177,2021-03-12
3239,Sold,Hemba,0x0ee062,0.13Ξ ($26),"Oct 31, 2018",0.13,26,2018-10-31
3429,Sold,Pranksy,0xd07ee1,0.70Ξ ($131),"Aug 21, 2019",0.7,131,2019-08-21
3429,Sold,0x00d7c9,Pranksy,0.40Ξ ($118),"Jun 21, 2019",0.4,118,2019-06-21
3619,Sold,Cyborg,0x94c1d7,0.17Ξ ($122),"Dec 17, 2017",0.17,122,2017-12-17
3619,Sold,0xbc081c,Cyborg,0.15Ξ ($44),"Sep 29, 2017",0.15,44,2017-09-29
2209,Sold,0x0713a6,snowfro,"15Ξ ($9,341)","Dec 23, 2020",15,9341,2020-12-23
2209,Sold,antunes_…,0x0713a6,1.20Ξ ($230),"May 12, 2020",1.2,230,2020-05-12
2209,Sold,0xb6be4d,antunes_…,0.90Ξ ($115),"Mar 14, 2020",0.9,115,2020-03-14
2609,Sold,13516492,6797282,"36Ξ ($69,026)","Mar 13, 2021",36,69026,2021-03-13
2609,Sold,15840856,7348023,"19Ξ ($32,915)","Feb 15, 2021",19,32915,2021-02-15
2609,Sold,10734384,15840856,"9.50Ξ ($17,264)","Feb 14, 2021",9.5,17264,2021-02-14
2809,Sold,12322844,5772875,0.30Ξ ($58),"Jul 19, 2017",0.3,58,2017-07-19
3009,Sold,337252,7348023,"99Ξ ($157,029)","Feb 25, 2021",99,157029,2021-02-25
3409,Sold,0x51636d,426773,"28Ξ ($49,680)","Mar 12, 2021",28,49680,2021-03-12
3409,Sold,0x74be0a,5333869,"28Ξ ($41,279)","Mar 05, 2021",28,41279,2021-03-05
3409,Sold,0xc272ed,7650826,"17Ξ ($34,135)","Feb 20, 2021",17,34135,2021-02-20
3609,Sold,0x4eb676,0x8847be,"375Ξ ($683,055)","Mar 29, 2021",375,683055,2021-03-29
3609,Sold,0xef466e,0x4eb676,"369Ξ ($565,998)","Mar 05, 2021",369,565998,2021-03-05
2209,Sold,0x0713a6,snowfro,"15Ξ ($9,341)","Dec 23, 2020",15,9341,2020-12-23
2209,Sold,antunes_…,0x0713a6,1.20Ξ ($230),"May 12, 2020",1.2,230,2020-05-12
2209,Sold,0xb6be4d,antunes_…,0.90Ξ ($115),"Mar 14, 2020",0.9,115,2020-03-14
2609,Sold,13516492,6797282,"36Ξ ($69,026)","Mar 13, 2021",36,69026,2021-03-13
2609,Sold,15840856,7348023,"19Ξ ($32,915)","Feb 15, 2021",19,32915,2021-02-15
2609,Sold,10734384,15840856,"9.50Ξ ($17,264)","Feb 14, 2021",9.5,17264,2021-02-14
2809,Sold,12322844,5772875,0.30Ξ ($58),"Jul 19, 2017",0.3,58,2017-07-19
3009,Sold,337252,7348023,"99Ξ ($157,029)","Feb 25, 2021",99,157029,2021-02-25
3409,Sold,0x51636d,426773,"28Ξ ($49,680)","Mar 12, 2021",28,49680,2021-03-12
3409,Sold,0x74be0a,5333869,"28Ξ ($41,279)","Mar 05, 2021",28,41279,2021-03-05
3409,Sold,0xc272ed,7650826,"17Ξ ($34,135)","Feb 20, 2021",17,34135,2021-02-20
3609,Sold,0x4eb676,0x8847be,"375Ξ ($683,055)","Mar 29, 2021",375,683055,2021-03-29
3609,Sold,0xef466e,0x4eb676,"369Ξ ($565,998)","Mar 05, 2021",369,565998,2021-03-05
4009,Sold,jmg,Tschuuul…,0.47Ξ ($80),"Sep 25, 2019",0.47,80,2019-09-25
4009,Sold,0xd8e806,0x00bd3a,0.35Ξ ($68),"Jul 19, 2017",0.35,68,2017-07-19
4009,Sold,Hemba,0xd8e806,0.06Ξ ($12),"Jul 11, 2017",0.06,12,2017-07-11
2109,Sold,Hemba,0x8adbff,0.16Ξ ($115),"Dec 13, 2017",0.16,115,2017-12-13
2319,Sold,55241,7435267,0.05Ξ ($26),"May 28, 2018",0.05,26,2018-05-28
2529,Sold,0x7ea6df,0x032bc4,"16.70Ξ ($32,745)","Feb 21, 2021",16.7,32745,2021-02-21
2529,Sold,Hemba,0x7ea6df,0.77Ξ ($154),"May 16, 2020",0.77,154,2020-05-16
2739,Sold,0xe5e771,hahah.et…,"6.75Ξ ($11,814)","Feb 09, 2021",6.75,11814,2021-02-09
2739,Sold,Pranksy,0xe5e771,2.19Ξ ($719),"Sep 24, 2020",2.19,719,2020-09-24
2739,Sold,Hemba,Pranksy,1.80Ξ ($613),"Sep 22, 2020",1.8,613,2020-09-22
2949,Sold,NFTinTin,Liber8Ho…,"12.12Ξ ($4,454)","Oct 17, 2020",12.12,4454,2020-10-17
2949,Sold,0xfb077c,NFTinTin,1Ξ ($130),"Jan 02, 2020",1,130,2020-01-02
3159,Sold,Lumberg,qiwave,1.43Ξ ($315),"Jun 28, 2020",1.43,315,2020-06-28
3159,Sold,barthazi…,Lumberg,0.99Ξ ($240),"Jun 23, 2020",0.99,240,2020-06-23
3159,Sold,0x27c79a,barthazi…,0.55Ξ ($69),"Mar 30, 2020",0.55,69,2020-03-30
3159,Sold,Pranksy,0x27c79a,0.50Ξ ($72),"Jan 07, 2020",0.5,72,2020-01-07
3159,Sold,0x00d7c9,Pranksy,0.40Ξ ($109),"Jun 20, 2019",0.4,109,2019-06-20
3369,Sold,flipper_,WuTangCl…,"5.58Ξ ($1,939)","Oct 04, 2020",5.58,1939,2020-10-04
3369,Sold,redlione…,flipper_,"4.79Ξ ($1,741)","Sep 28, 2020",4.79,1741,2020-09-28
3369,Sold,0x11c9a7,redlione…,"4.20Ξ ($1,503)","Sep 28, 2020",4.2,1503,2020-09-28
3369,Sold,PM_disco…,0x11c9a7,"3.90Ξ ($1,395)","Sep 28, 2020",3.9,1395,2020-09-28
3369,Sold,Hemba,PM_disco…,1.80Ξ ($667),"Sep 20, 2020",1.8,667,2020-09-20
3999,Sold,Hemba,Kenney,0.15Ξ ($57),"Apr 04, 2018",0.15,57,2018-04-04
4209,Sold,0xbac42c,0x392d47,"24Ξ ($49,959)","Apr 09, 2021",24,49959,2021-04-09
4209,Sold,0x51357b,0xd35bd3,"3.75Ξ ($1,326)","Sep 26, 2020",3.75,1326,2020-09-26
4209,Sold,Hemba,0x51357b,1.25Ξ ($363),"Jul 25, 2020",1.25,363,2020-07-25
4419,Sold,0x_NFT,WuTangCl…,"4.25Ξ ($1,491)","Oct 08, 2020",4.25,1491,2020-10-08
4419,Sold,MrNFT,0x_NFT,"2.98Ξ ($1,027)","Sep 25, 2020",2.98,1027,2020-09-25
4419,Sold,Pranksy,MrNFT,2.75Ξ ($949),"Sep 25, 2020",2.75,949,2020-09-25
4419,Sold,Hemba,Pranksy,2.30Ξ ($796),"Sep 24, 2020",2.3,796,2020-09-24
2209,Sold,0x0713a6,snowfro,"15Ξ ($9,341)","Dec 23, 2020",15,9341,2020-12-23
2209,Sold,antunes_…,0x0713a6,1.20Ξ ($230),"May 12, 2020",1.2,230,2020-05-12
2209,Sold,0xb6be4d,antunes_…,0.90Ξ ($115),"Mar 14, 2020",0.9,115,2020-03-14
2429,Sold,opal.eth,0x3d40e3,"22.94Ξ ($35,262)","Mar 01, 2021",22.94,35262,2021-03-01
2429,Sold,0x1da533,opal.eth,"21Ξ ($41,030)","Feb 21, 2021",21,41030,2021-02-21
2429,Sold,0x231707,DANNY,3.50Ξ ($723),"May 27, 2020",3.5,723,2020-05-27
3529,Sold,renaissa…,Kataster…,"19.99Ξ ($41,320)","Apr 08, 2021",19.99,41320,2021-04-08
3529,Sold,0xa3cb30,renaissa…,"19Ξ ($35,111)","Mar 31, 2021",19,35111,2021-03-31
4189,Sold,0xe28855,astrober…,"21Ξ ($43,341)","Apr 08, 2021",21,43341,2021-04-08
4189,Sold,0x6f4a2d,0xe28855,"16Ξ ($29,239)","Mar 31, 2021",16,29239,2021-03-31
2309,Sold,natealex,0x93db36,1.95Ξ ($752),"Sep 20, 2020",1.95,752,2020-09-20
2309,Sold,Hemba,natealex,1.30Ξ ($265),"May 27, 2020",1.3,265,2020-05-27
2539,Sold,5966219,11004839,"7.45Ξ ($9,940)","Jan 28, 2021",7.45,9940,2021-01-28
2539,Sold,14602955,5966219,0.05Ξ ($14),"Jun 24, 2017",0.05,14,2017-06-24
2769,Sold,0x0601d0,1574505,"4.25Ξ ($1,598)","Oct 18, 2020",4.25,1598,2020-10-18
2769,Sold,0xc00c2b,16745492,0.20Ξ ($57),"Jul 02, 2017",0.2,57,2017-07-02
2999,Sold,0x54e70a,0x0dd273,"20.48Ξ ($32,643)","Mar 24, 2021",20.48,32643,2021-03-24
2999,Sold,0xdde0b7,0x54e70a,"20.50Ξ ($34,839)","Mar 23, 2021",20.5,34839,2021-03-23
2999,Sold,0xbae25a,0xdde0b7,"19.50Ξ ($32,844)","Mar 22, 2021",19.5,32844,2021-03-22
2999,Sold,444.eth,0xdffbaf,"4.40Ξ ($1,512)","Oct 08, 2020",4.4,1512,2020-10-08
2999,Sold,0xe754d1,444.eth,"5.30Ξ ($1,870)","Oct 02, 2020",5.3,1870,2020-10-02
2999,Sold,0xf4239e,0xe754d1,"3Ξ ($1,065)","Sep 27, 2020",3,1065,2020-09-27
2999,Sold,Hemba,0xf4239e,2.30Ξ ($796),"Sep 24, 2020",2.3,796,2020-09-24
3459,Sold,7293485,11423707,"23Ξ ($31,295)","Feb 28, 2021",23,31295,2021-02-28
4379,Sold,robers,0x36fbd8,"90Ξ ($172,621)","Feb 22, 2021",90,172621,2021-02-22
4379,Sold,0x4dcaf3,robers,1.75Ξ ($256),"Feb 21, 2019",1.75,256,2019-02-21
4379,Sold,0x99b884,0x4dcaf3,1Ξ ($286),"Jun 27, 2017",1,286,2017-06-27
4609,Sold,0xea9724,0x59bb7b,"17.49Ξ ($33,908)","Mar 31, 2021",17.49,33908,2021-03-31
4609,Sold,seel.eth,0xea9724,"7.27Ξ ($13,293)","Feb 14, 2021",7.27,13293,2021-02-14
4609,Sold,0xa3cb30,seel.eth,"6.10Ξ ($8,208)","Jan 28, 2021",6.1,8208,2021-01-28
4839,Sold,Hemba,0xc352b5,0.48Ξ ($62),"Nov 20, 2018",0.48,62,2018-11-20
2889,Sold,7293485,12604552,"81Ξ ($146,979)","Mar 08, 2021",81,146979,2021-03-08
3369,Sold,flipper_,WuTangCl…,"5.58Ξ ($1,939)","Oct 04, 2020",5.58,1939,2020-10-04
3369,Sold,redlione…,flipper_,"4.79Ξ ($1,741)","Sep 28, 2020",4.79,1741,2020-09-28
3369,Sold,0x11c9a7,redlione…,"4.20Ξ ($1,503)","Sep 28, 2020",4.2,1503,2020-09-28
3369,Sold,PM_disco…,0x11c9a7,"3.90Ξ ($1,395)","Sep 28, 2020",3.9,1395,2020-09-28
3369,Sold,Hemba,PM_disco…,1.80Ξ ($667),"Sep 20, 2020",1.8,667,2020-09-20
3609,Sold,0x4eb676,0x8847be,"375Ξ ($683,055)","Mar 29, 2021",375,683055,2021-03-29
3609,Sold,0xef466e,0x4eb676,"369Ξ ($565,998)","Mar 05, 2021",369,565998,2021-03-05
4089,Sold,7293485,13901109,"16.10Ξ ($30,878)","Apr 01, 2021",16.1,30878,2021-04-01
4329,Sold,0x27c79a,0x98c488,0.74Ξ ($149),"May 17, 2020",0.74,149,2020-05-17
4329,Sold,Goop,0x27c79a,0.57Ξ ($92),"Jan 16, 2020",0.57,92,2020-01-16
4329,Sold,NFTinTin,Goop,0.54Ξ ($75),"Jan 08, 2020",0.54,75,2020-01-08
4329,Sold,Goop,NFTinTin,0.44Ξ ($59),"Jan 04, 2020",0.44,59,2020-01-04
4329,Sold,jmg,Goop,0.39Ξ ($53),"Dec 30, 2019",0.39,53,2019-12-30
4329,Sold,0x126619,0x00bd3a,0.03Ξ ($7),"Jul 24, 2017",0.03,7,2017-07-24
4809,Sold,0x19ac60,0x59a549,"4.69Ξ ($6,639)","Jan 25, 2021",4.69,6639,2021-01-25
5289,Sold,Cyborg,Kenney,0.15Ξ ($152),"Jan 18, 2018",0.15,152,2018-01-18
5769,Sold,Hemba,0x9b35db,1.40Ξ ($536),"Aug 26, 2020",1.4,536,2020-08-26
0033,Sold,0xc352b5,6689278,0.51Ξ ($105),"Jul 10, 2017",0.51,105,2017-07-10
0053,Sold,0xdcf227,jmg,"22Ξ ($42,803)","Feb 19, 2021",22,42803,2021-02-19
0053,Sold,0xc352b5,0xdcf227,"20Ξ ($26,612)","Feb 01, 2021",20,26612,2021-02-01
0089,Sold,jmg,TokenAng…,"19.99Ξ ($6,898)","Sep 06, 2020",19.99,6898,2020-09-06
0089,Sold,0x052564,jmg,"20Ξ ($4,138)","May 28, 2020",20,4138,2020-05-28
0089,Sold,0xc352b5,0xd8e806,1.50Ξ ($336),"Jul 12, 2017",1.5,336,2017-07-12
0116,Sold,0xd8e806,5779367,2.40Ξ ($456),"Jul 17, 2017",2.4,456,2017-07-17
0116,Sold,0xc352b5,14215174,1.20Ξ ($229),"Jul 11, 2017",1.2,229,2017-07-11
0118,Sold,0x394547,4418122,"20.25Ξ ($36,230)","Mar 11, 2021",20.25,36230,2021-03-11
0124,Sold,8702240,15883875,"19.90Ξ ($34,519)","Mar 08, 2021",19.9,34519,2021-03-08
0124,Sold,5333869,8702240,"15Ξ ($25,709)","Mar 07, 2021",15,25709,2021-03-07
0138,Sold,0x380236,0xdde0b7,"15.95Ξ ($33,761)","Apr 06, 2021",15.95,33761,2021-04-06
0138,Sold,0x753b20,0x380236,"15.25Ξ ($32,364)","Apr 06, 2021",15.25,32364,2021-04-06
0138,Sold,0xd4442b,0x753b20,"14.50Ξ ($30,548)","Apr 06, 2021",14.5,30548,2021-04-06
0138,Sold,0xf98a39,0xd4442b,"14Ξ ($29,199)","Apr 06, 2021",14,29199,2021-04-06
0139,Sold,14130067,11459315,"24.99Ξ ($44,945)","Mar 11, 2021",24.99,44945,2021-03-11
0141,Sold,5299543,14127461,"33.99Ξ ($71,411)","Apr 06, 2021",33.99,71411,2021-04-06
0143,Sold,MrTpunks,0x09d408,"165Ξ ($312,721)","Mar 14, 2021",165,312721,2021-03-14
0143,Sold,0xc352b5,MrTpunks,"6.50Ξ ($1,041)","Jan 25, 2020",6.5,1041,2020-01-25
0155,Sold,0x1da533,Michel_M…,"25Ξ ($32,621)","Jan 31, 2021",25,32621,2021-01-31
0155,Sold,Michel_M…,DANNY,"12Ξ ($4,253)","Sep 09, 2020",12,4253,2020-09-09
0155,Sold,0xc352b5,Michel_M…,"7Ξ ($2,708)","Aug 26, 2020",7,2708,2020-08-26
0160,Sold,0x54d7f9,5657750,"40Ξ ($64,338)","Mar 03, 2021",40,64338,2021-03-03
0160,Sold,0xc352b5,5560313,"30Ξ ($58,686)","Feb 19, 2021",30,58686,2021-02-19
0161,Sold,Pranksy,0x3634f3,"17Ξ ($35,762)","Apr 05, 2021",17,35762,2021-04-05
0168,Sold,0xc352b5,TokenAng…,"25Ξ ($29,367)","Jan 06, 2021",25,29367,2021-01-06
0169,Sold,Slats_et…,0x2e5ccf,"45Ξ ($95,175)","Apr 10, 2021",45,95175,2021-04-10
0169,Sold,Pranksy,Slats_et…,"6.99Ξ ($1,447)","May 28, 2020",6.99,1447,2020-05-28
0169,Sold,0xc352b5,Pranksy,1Ξ ($127),"Jan 02, 2020",1,127,2020-01-02
0173,Sold,12800693,5269070,"50Ξ ($84,741)","Feb 23, 2021",50,84741,2021-02-23
0195,Sold,0xc352b5,12611005,"16Ξ ($26,201)","Feb 05, 2021",16,26201,2021-02-05
0203,Sold,10617296,11234466,"29.99Ξ ($61,700)","Apr 08, 2021",29.99,61700,2021-04-08
0240,Sold,Pranksy,Slats_et…,"7Ξ ($1,443)","May 27, 2020",7,1443,2020-05-27
0240,Sold,Carlini8,Pranksy,4Ξ ($813),"May 26, 2020",4,813,2020-05-26
0240,Sold,0xc352b5,Carlini8,2Ξ ($255),"Jan 02, 2020",2,255,2020-01-02
0241,Sold,0xc352b5,393680,5Ξ ($719),"Jan 08, 2020",5,719,2020-01-08
0249,Sold,0xc352b5,sov,0.95Ξ ($229),"Jul 07, 2017",0.95,229,2017-07-07
0257,Sold,15271881,9407303,"27Ξ ($45,177)","Mar 24, 2021",27,45177,2021-03-24
0257,Sold,6666831,15271881,"24.50Ξ ($43,159)","Mar 12, 2021",24.5,43159,2021-03-12
0259,Sold,12008756,2557756,"24.75Ξ ($52,506)","Apr 06, 2021",24.75,52506,2021-04-06
0259,Sold,7703244,12008756,"18.50Ξ ($33,714)","Mar 09, 2021",18.5,33714,2021-03-09
0264,Sold,0xc352b5,9203286,"8.70Ξ ($11,417)","Jan 27, 2021",8.7,11417,2021-01-27
0273,Sold,Deeze,0xdcf227,"26.50Ξ ($42,902)","Mar 03, 2021",26.5,42902,2021-03-03
0273,Sold,whiterab…,Deeze,"20Ξ ($32,509)","Mar 03, 2021",20,32509,2021-03-03
0273,Sold,Carlini8,whiterab…,"3Ξ ($1,113)","Sep 12, 2020",3,1113,2020-09-12
0273,Sold,0xc352b5,Carlini8,2Ξ ($261),"Jan 01, 2020",2,261,2020-01-01
0280,Sold,5772875,7435267,0.25Ξ ($188),"Dec 26, 2017",0.25,188,2017-12-26
0280,Sold,12800693,5772875,1.20Ξ ($244),"Jul 25, 2017",1.2,244,2017-07-25
0281,Sold,0xc352b5,6689278,1.10Ξ ($304),"Jul 03, 2017",1.1,304,2017-07-03
0283,Sold,0xef3dff,0x717403,0.21Ξ ($373),"Mar 12, 2021",0.21,373,2021-03-12
0283,Sold,Pranksy,0xef3dff,"27.49Ξ ($48,775)","Mar 12, 2021",27.49,48775,2021-03-12
0285,Sold,0x29b1b2,0x05083f,"31.99Ξ ($61,118)","Mar 13, 2021",31.99,61118,2021-03-13
0285,Sold,Pranksy,0x29b1b2,"29.99Ξ ($49,451)","Feb 24, 2021",29.99,49451,2021-02-24
0287,Sold,0x33c265,0x5ac996,"22.50Ξ ($33,545)","Mar 05, 2021",22.5,33545,2021-03-05
0287,Sold,0xb5cae9,0x33c265,"22Ξ ($32,377)","Mar 05, 2021",22,32377,2021-03-05
0287,Sold,0x967ee5,0x3437cf,"29.50Ξ ($52,610)","Feb 22, 2021",29.5,52610,2021-02-22
0287,Sold,Pranksy,0x967ee5,"24.99Ξ ($46,882)","Feb 22, 2021",24.99,46882,2021-02-22
0291,Sold,0x3185fa,MrTpunks,"21Ξ ($39,450)","Mar 15, 2021",21,39450,2021-03-15
0294,Sold,CPyrc,0x59a549,"12Ξ ($17,182)","Jan 25, 2021",12,17182,2021-01-25
0294,Sold,Slats_et…,CPyrc,"6.25Ξ ($7,626)","Jan 09, 2021",6.25,7626,2021-01-09
0294,Sold,Carlini8,Slats_et…,"4.90Ξ ($1,086)","May 29, 2020",4.9,1086,2020-05-29
0294,Sold,0xc352b5,Carlini8,2Ξ ($255),"Jan 02, 2020",2,255,2020-01-02
0318,Sold,0xa876cd,0xcbb9ab,"27.50Ξ ($56,756)","Apr 08, 2021",27.5,56756,2021-04-08
0318,Sold,Pranksy,0xa876cd,"26.50Ξ ($41,940)","Mar 04, 2021",26.5,41940,2021-03-04
0322,Sold,kingskin…,0x2b9324,"16Ξ ($21,298)","Jan 19, 2021",16,21298,2021-01-19
0322,Sold,0xc352b5,KingChad,"12Ξ ($4,628)","Sep 13, 2020",12,4628,2020-09-13
0328,Sold,4133877,4660429,"21.88Ξ ($39,666)","Mar 12, 2021",21.88,39666,2021-03-12
0329,Sold,0x89eacd,snax,"24.90Ξ ($37,680)","Feb 27, 2021",24.9,37680,2021-02-27
0329,Sold,0x07c5ea,0x89eacd,"22.95Ξ ($38,774)","Feb 24, 2021",22.95,38774,2021-02-24
0329,Sold,Pranksy,0x07c5ea,"24.99Ξ ($44,567)","Feb 22, 2021",24.99,44567,2021-02-22
0335,Sold,hellogar…,0x07c5ea,"33Ξ ($61,220)","Feb 22, 2021",33,61220,2021-02-22
0335,Sold,0xc352b5,hellogar…,"40Ξ ($77,242)","Feb 22, 2021",40,77242,2021-02-22
0339,Sold,0xc352b5,14548427,"50Ξ ($95,924)","Feb 18, 2021",50,95924,2021-02-18
0340,Sold,0x5e43e1,4156.eth,"51Ξ ($105,617)","Apr 05, 2021",51,105617,2021-04-05
0340,Sold,0xc352b5,0x5e43e1,"50Ξ ($93,893)","Feb 22, 2021",50,93893,2021-02-22
0341,Sold,Pranksy,0x778608,"24.99Ξ ($42,815)","Feb 22, 2021",24.99,42815,2021-02-22
0344,Sold,0xc352b5,393680,"15Ξ ($3,004)","May 14, 2020",15,3004,2020-05-14
0346,Sold,12800693,6689278,0.47Ξ ($90),"Jul 11, 2017",0.47,90,2017-07-11
0352,Sold,Pranksy,flim.eth,"26.79Ξ ($42,639)","Feb 25, 2021",26.79,42639,2021-02-25
0353,Sold,0x3cd607,0xa698ca,"15Ξ ($28,947)","Apr 01, 2021",15,28947,2021-04-01
0353,Sold,0xa0a611,0x3cd607,"16.50Ξ ($31,693)","Mar 31, 2021",16.5,31693,2021-03-31
0353,Sold,Pranksy,0xa0a611,"16Ξ ($28,942)","Mar 31, 2021",16,28942,2021-03-31
0355,Sold,jmg,0x052ffe,0.75Ξ ($88),"Nov 29, 2018",0.75,88,2018-11-29
0355,Sold,0xc352b5,0x00bd3a,0.60Ξ ($135),"Jul 24, 2017",0.6,135,2017-07-24
0368,Sold,Pranksy,0x7962e7,"19.99Ξ ($33,495)","Mar 27, 2021",19.99,33495,2021-03-27
0376,Sold,0xbf8afa,0x033b8f,"28Ξ ($51,109)","Mar 19, 2021",28,51109,2021-03-19
0376,Sold,Pranksy,0xbf8afa,"24.99Ξ ($48,826)","Feb 21, 2021",24.99,48826,2021-02-21
0381,Sold,0x7e1de5,0xab6ca2,"24.99Ξ ($51,413)","Apr 08, 2021",24.99,51413,2021-04-08
0381,Sold,Pranksy,0x7e1de5,"23.99Ξ ($41,133)","Feb 22, 2021",23.99,41133,2021-02-22
0382,Sold,0xc352b5,6689278,0.51Ξ ($136),"Jul 06, 2017",0.51,136,2017-07-06
0384,Sold,0x7c5aee,0x1437d2,"48.20Ξ ($87,099)","Mar 16, 2021",48.2,87099,2021-03-16
0384,Sold,Pranksy,0x7c5aee,"24Ξ ($44,793)","Mar 14, 2021",24,44793,2021-03-14
0385,Sold,0xc352b5,MrTpunks,5Ξ ($975),"Apr 26, 2020",5,975,2020-04-26
0402,Sold,0x62bdc6,0x1424d2,"20Ξ ($36,652)","Mar 20, 2021",20,36652,2021-03-20
0402,Sold,0xa9ffa0,0x62bdc6,"17.84Ξ ($32,358)","Mar 20, 2021",17.84,32358,2021-03-20
0404,Sold,0xc352b5,sov,0.95Ξ ($229),"Jul 07, 2017",0.95,229,2017-07-07
0407,Sold,0xc352b5,1332720,"86Ξ ($155,127)","Mar 21, 2021",86,155127,2021-03-21
0411,Sold,Pranksy,0x20eadf,"24.99Ξ ($46,360)","Feb 22, 2021",24.99,46360,2021-02-22
0416,Sold,12800693,7548165,"65Ξ ($116,217)","Mar 22, 2021",65,116217,2021-03-22
0422,Sold,Pranksy,0x51636d,"34.99Ξ ($63,997)","Mar 18, 2021",34.99,63997,2021-03-18
0426,Sold,0x5fd36a,xaix.eth,"19.95Ξ ($41,001)","Apr 03, 2021",19.95,41001,2021-04-03
0426,Sold,0x3ba9cd,0x568cf5,"5.75Ξ ($2,048)","Sep 30, 2020",5.75,2048,2020-09-30
0426,Sold,Carlini8,0x3ba9cd,"4Ξ ($1,379)","Sep 25, 2020",4,1379,2020-09-25
0426,Sold,0xc352b5,Carlini8,2Ξ ($255),"Jan 02, 2020",2,255,2020-01-02
0430,Sold,Pranksy,0x0e6167,"17.99Ξ ($35,493)","Feb 21, 2021",17.99,35493,2021-02-21
0431,Sold,Pranksy,0x1b5038,"26.99Ξ ($47,886)","Feb 23, 2021",26.99,47886,2021-02-23
0435,Sold,0x7d9e9a,0x9e6483,"21.95Ξ ($38,660)","Mar 17, 2021",21.95,38660,2021-03-17
0435,Sold,0x8e564e,0x7d9e9a,"24Ξ ($42,981)","Mar 13, 2021",24,42981,2021-03-13
0435,Sold,0xb9fba8,0x8e564e,"20Ξ ($37,339)","Mar 10, 2021",20,37339,2021-03-10
0441,Sold,0xd4442b,0xbae25a,"19.20Ξ ($41,289)","Apr 11, 2021",19.2,41289,2021-04-11
0441,Sold,chrisbel…,0xd4442b,"18.50Ξ ($39,781)","Apr 11, 2021",18.5,39781,2021-04-11
0441,Sold,0x596572,chrisbel…,"21.97Ξ ($39,238)","Mar 15, 2021",21.97,39238,2021-03-15
0441,Sold,moistowl…,0x596572,"20Ξ ($35,964)","Mar 12, 2021",20,35964,2021-03-12
0445,Sold,0x6611fe,3038415,"71Ξ ($138,070)","Feb 20, 2021",71,138070,2021-02-20
0445,Sold,0xc352b5,6689278,0.65Ξ ($157),"Jul 07, 2017",0.65,157,2017-07-07
0446,Sold,Deeze,WuTangCl…,"24.99Ξ ($48,554)","Feb 21, 2021",24.99,48554,2021-02-21
0446,Sold,0xc352b5,Deeze,"11Ξ ($14,677)","Jan 28, 2021",11,14677,2021-01-28
0449,Sold,0x90b60b,0xfde36c,"19.19Ξ ($40,859)","Apr 06, 2021",19.19,40859,2021-04-06
0449,Sold,Pranksy,0x90b60b,"18.50Ξ ($33,610)","Mar 30, 2021",18.5,33610,2021-03-30
0460,Sold,0xc352b5,Snowfro,2.50Ξ ($351),"Mar 27, 2019",2.5,351,2019-03-27
0465,Sold,0xc352b5,Deeze,"14Ξ ($18,438)","Jan 27, 2021",14,18438,2021-01-27
0470,Sold,6471110,8704847,"18.99Ξ ($34,425)","Mar 11, 2021",18.99,34425,2021-03-11
0470,Sold,14217515,6471110,"17.90Ξ ($31,841)","Mar 11, 2021",17.9,31841,2021-03-11
0471,Sold,Pranksy,0xe4f0ac,"14.99Ξ ($28,726)","Feb 18, 2021",14.99,28726,2021-02-18
0473,Sold,Pranksy,0x36e629,"23Ξ ($35,190)","Mar 04, 2021",23,35190,2021-03-04
0483,Sold,12580761,12056507,"22Ξ ($45,262)","Apr 08, 2021",22,45262,2021-04-08
0483,Sold,4660429,12580761,"19.99Ξ ($40,936)","Apr 08, 2021",19.99,40936,2021-04-08
0483,Sold,6329904,5143437,"17Ξ ($28,244)","Mar 07, 2021",17,28244,2021-03-07
0485,Sold,0xc352b5,5111856,"16Ξ ($20,380)","Jan 28, 2021",16,20380,2021-01-28
0486,Sold,0xb9fddb,3379153,"40Ξ ($82,555)","Apr 08, 2021",40,82555,2021-04-08
0486,Sold,0x48af2b,12189147,"39Ξ ($65,232)","Feb 24, 2021",39,65232,2021-02-24
0486,Sold,0x09d408,4763435,"15Ξ ($27,279)","Feb 14, 2021",15,27279,2021-02-14
0486,Sold,0xc352b5,644104,"13Ξ ($16,986)","Jan 29, 2021",13,16986,2021-01-29
0488,Sold,MadMax,0x963331,"27.25Ξ ($43,847)","Feb 23, 2021",27.25,43847,2021-02-23
0488,Sold,Pranksy,MadMax,"24.99Ξ ($44,337)","Feb 23, 2021",24.99,44337,2021-02-23
0497,Sold,15851975,3617989,"23Ξ ($36,842)","Mar 24, 2021",23,36842,2021-03-24
0501,Sold,0xc352b5,6689278,0.65Ξ ($173),"Jul 06, 2017",0.65,173,2017-07-06
0504,Sold,0xc352b5,6689278,0.65Ξ ($173),"Jul 06, 2017",0.65,173,2017-07-06
0505,Sold,👱‍♀.eth,0x6611fe,"25.25Ξ ($45,076)","Mar 15, 2021",25.25,45076,2021-03-15
0506,Sold,0x62bdc6,0x6336fb,"24.97Ξ ($53,454)","Apr 12, 2021",24.97,53454,2021-04-12
0506,Sold,VonMises,0xb88495,"7.50Ξ ($2,714)","Sep 28, 2020",7.5,2714,2020-09-28
0506,Sold,Carlini8,VonMises,2.50Ξ ($847),"Sep 08, 2020",2.5,847,2020-09-08
0506,Sold,0xc352b5,Carlini8,2Ξ ($264),"Jan 01, 2020",2,264,2020-01-01
0507,Sold,Pranksy,0x8c97cf,"27.99Ξ ($48,154)","Feb 23, 2021",27.99,48154,2021-02-23
0509,Sold,0xf2907a,0x324f6e,"21Ξ ($44,902)","Apr 11, 2021",21,44902,2021-04-11
0509,Sold,CPyrc,0xd79165,"19.95Ξ ($41,237)","Apr 08, 2021",19.95,41237,2021-04-08
0509,Sold,Pranksy,CPyrc,"18.50Ξ ($33,610)","Mar 30, 2021",18.5,33610,2021-03-30
0510,Sold,jmg,TokenAng…,"21.55Ξ ($2,937)","Jan 09, 2020",21.55,2937,2020-01-09
0510,Sold,0xc352b5,0x00bd3a,1.50Ξ ($399),"Jul 05, 2017",1.5,399,2017-07-05
0516,Sold,0xc352b5,884800,0.60Ξ ($115),"Jul 28, 2017",0.6,115,2017-07-28
0518,Sold,13537280,8918216,"28Ξ ($47,525)","Mar 27, 2021",28,47525,2021-03-27
0522,Sold,0x62bdc6,0x742117,"35Ξ ($62,898)","Mar 16, 2021",35,62898,2021-03-16
0522,Sold,point-gr…,0x62bdc6,"32.99Ξ ($58,966)","Mar 15, 2021",32.99,58966,2021-03-15
0522,Sold,Pranksy,0xeb725f,"34.99Ξ ($67,567)","Feb 22, 2021",34.99,67567,2021-02-22
0534,Sold,natealex,0x75bb8e,"59.69Ξ ($90,937)","Feb 23, 2021",59.69,90937,2021-02-23
0534,Sold,0xc352b5,natealex,"40Ξ ($78,916)","Feb 21, 2021",40,78916,2021-02-21
0535,Sold,CPyrc,0x93d020,"18Ξ ($33,057)","Mar 30, 2021",18,33057,2021-03-30
0538,Sold,0x3efe8b,0xab6ca2,"25Ξ ($51,899)","Apr 09, 2021",25,51899,2021-04-09
0538,Sold,Pranksy,0x3efe8b,"23.99Ξ ($35,138)","Feb 27, 2021",23.99,35138,2021-02-27
0544,Sold,0x0a4eaf…,0x9b35db,"5.50Ξ ($1,994)","Sep 13, 2020",5.5,1994,2020-09-13
0547,Sold,Pranksy,Tschuuul…,"20.24Ξ ($38,961)","Feb 21, 2021",20.24,38961,2021-02-21
0548,Sold,Pranksy,0x4c9692,"17Ξ ($35,762)","Apr 05, 2021",17,35762,2021-04-05
0549,Sold,0xc352b5,6689278,0.75Ξ ($154),"Jul 10, 2017",0.75,154,2017-07-10
0561,Sold,0xc352b5,KingChad,"22Ξ ($8,176)","Sep 15, 2020",22,8176,2020-09-15
0563,Sold,12800693,15159329,"35Ξ ($68,384)","Feb 21, 2021",35,68384,2021-02-21
0573,Sold,scalynel…,0x36fbd8,"21Ξ ($38,333)","Feb 13, 2021",21,38333,2021-02-13
0573,Sold,0xc352b5,scalynel…,"14Ξ ($18,281)","Jan 29, 2021",14,18281,2021-01-29
0578,Sold,0xdde0b7,0xc5b066,"25Ξ ($44,062)","Mar 21, 2021",25,44062,2021-03-21
0586,Sold,0x7e455c,0xac768d,"24.90Ξ ($46,731)","Mar 14, 2021",24.9,46731,2021-03-14
0586,Sold,0x84c920,0x7e455c,"23Ξ ($33,723)","Feb 26, 2021",23,33723,2021-02-26
0586,Sold,0xa7eba7,0x84c920,"20.99Ξ ($34,602)","Feb 25, 2021",20.99,34602,2021-02-25
0586,Sold,Pranksy,0xa7eba7,"23.99Ξ ($42,520)","Feb 22, 2021",23.99,42520,2021-02-22
0588,Sold,0xc352b5,7943310,"45Ξ ($86,623)","Feb 21, 2021",45,86623,2021-02-21
0589,Sold,Pranksy,0xdcaf84,"16.99Ξ ($33,331)","Feb 21, 2021",16.99,33331,2021-02-21
0591,Sold,0x1a4d11,15517728,"22.30Ξ ($42,605)","Mar 13, 2021",22.3,42605,2021-03-13
0591,Sold,0xcb8172,1723665,"21Ξ ($37,224)","Mar 13, 2021",21,37224,2021-03-13
0593,Sold,Pranksy,0xc05488,"70Ξ ($127,019)","Mar 08, 2021",70,127019,2021-03-08
0593,Sold,0xc352b5,Pranksy,"45Ξ ($63,664)","Feb 02, 2021",45,63664,2021-02-02
0599,Sold,14150377,9439117,"19.99Ξ ($36,195)","Mar 30, 2021",19.99,36195,2021-03-30
0604,Sold,Deeze,0xe16df6,"8Ξ ($10,167)","Jan 27, 2021",8,10167,2021-01-27
0604,Sold,0xc352b5,Deeze,"8Ξ ($10,499)","Jan 27, 2021",8,10499,2021-01-27
0605,Sold,0xc352b5,j1mmy,"50Ξ ($96,553)","Feb 21, 2021",50,96553,2021-02-21
0610,Sold,0x13816f,0xdaef5b,"10.50Ξ ($18,504)","Feb 15, 2021",10.5,18504,2021-02-15
0610,Sold,0x3ba9cd,0x13816f,"5.75Ξ ($2,052)","Sep 30, 2020",5.75,2052,2020-09-30
0610,Sold,Carlini8,0x3ba9cd,"4Ξ ($1,379)","Sep 25, 2020",4,1379,2020-09-25
0610,Sold,0xc352b5,Carlini8,2Ξ ($261),"Jan 01, 2020",2,261,2020-01-01
0613,Sold,12800693,738104,"6.50Ξ ($8,545)","Feb 01, 2021",6.5,8545,2021-02-01
0615,Sold,redlione…,0xace6f2,"29.99Ξ ($54,791)","Mar 20, 2021",29.99,54791,2021-03-20
0616,Sold,0x4eb676,beautifu…,"108Ξ ($174,944)","Mar 26, 2021",108,174944,2021-03-26
0616,Sold,0x09d408,0x4eb676,"99.99Ξ ($153,046)","Mar 05, 2021",99.99,153046,2021-03-05
0616,Sold,0xc352b5,0x09d408,"11Ξ ($14,677)","Jan 28, 2021",11,14677,2021-01-28
0618,Sold,Pranksy,0xf75fcd,"24.99Ξ ($41,900)","Feb 24, 2021",24.99,41900,2021-02-24
0620,Sold,0x324f6e,0x983ace,"22Ξ ($46,691)","Apr 11, 2021",22,46691,2021-04-11
0620,Sold,0x2e5ccf,0x324f6e,"20Ξ ($41,340)","Apr 08, 2021",20,41340,2021-04-08
0620,Sold,Pranksy,0x2e5ccf,"19.99Ξ ($33,495)","Mar 27, 2021",19.99,33495,2021-03-27
0627,Sold,0x4dcaf3,scalynel…,2.50Ξ ($485),"Apr 26, 2020",2.5,485,2020-04-26
0627,Sold,straybit…,0x4dcaf3,1.50Ξ ($308),"Jul 13, 2017",1.5,308,2017-07-13
0627,Sold,0xc352b5,straybit…,1.01Ξ ($269),"Jul 06, 2017",1.01,269,2017-07-06
0628,Sold,Pranksy,0x4e3eb7,"29.99Ξ ($54,561)","Mar 17, 2021",29.99,54561,2021-03-17
0628,Sold,0xc352b5,Pranksy,"12Ξ ($20,953)","Feb 09, 2021",12,20953,2021-02-09
0638,Sold,0x50dd57,0x33b17a,"130Ξ ($277,363)","Apr 10, 2021",130,277363,2021-04-10
0638,Sold,TweetyPi…,0xb1adce,"20Ξ ($34,158)","Feb 08, 2021",20,34158,2021-02-08
0638,Sold,0xc352b5,TweetyPi…,"18Ξ ($30,742)","Feb 08, 2021",18,30742,2021-02-08
0639,Sold,0x3e1e5d,0x4dea06,"20.50Ξ ($42,617)","Apr 09, 2021",20.5,42617,2021-04-09
0639,Sold,0x494508,0x3e1e5d,"20Ξ ($40,957)","Apr 08, 2021",20,40957,2021-04-08
0639,Sold,0xdde0b7,0x494508,"14.50Ξ ($28,739)","Apr 07, 2021",14.5,28739,2021-04-07
0639,Sold,0x7d9e9a,0xdde0b7,"15Ξ ($31,134)","Apr 04, 2021",15,31134,2021-04-04
0639,Sold,0x380236,0x7d9e9a,"17Ξ ($34,895)","Apr 03, 2021",17,34895,2021-04-03
0639,Sold,0x9747d4,0x380236,"15.50Ξ ($32,577)","Apr 03, 2021",15.5,32577,2021-04-03
0639,Sold,0x6ec30f,wookie.e…,"20.99Ξ ($38,872)","Mar 20, 2021",20.99,38872,2021-03-20
0639,Sold,0xe1d29d,0x6ec30f,"21Ξ ($37,839)","Mar 18, 2021",21,37839,2021-03-18
0641,Sold,0xc352b5,sov,0.55Ξ ($157),"Jun 27, 2017",0.55,157,2017-06-27
0660,Sold,Pranksy,0x030098,"26.69Ξ ($41,914)","Mar 02, 2021",26.69,41914,2021-03-02
0665,Sold,0xc352b5,TokenAng…,"6Ξ ($1,239)","May 27, 2020",6,1239,2020-05-27
0668,Sold,Pranksy,0x9acbb5,"23.99Ξ ($41,879)","Mar 12, 2021",23.99,41879,2021-03-12
0669,Sold,alphab.e…,chifoomi,"22.45Ξ ($35,700)","Mar 04, 2021",22.45,35700,2021-03-04
0669,Sold,Pranksy,alphab.e…,"17.99Ξ ($35,493)","Feb 21, 2021",17.99,35493,2021-02-21
0675,Sold,Pranksy,0x2b0386,"14.99Ξ ($30,004)","Feb 20, 2021",14.99,30004,2021-02-20
0678,Sold,1723665,6870182,"21.69Ξ ($40,638)","Mar 14, 2021",21.69,40638,2021-03-14
0678,Sold,4058728,1723665,"19.50Ξ ($36,039)","Mar 14, 2021",19.5,36039,2021-03-14
0682,Sold,heeee.et…,0x4db1dd,"23.99Ξ ($43,965)","Mar 20, 2021",23.99,43965,2021-03-20
0682,Sold,0x86af6e,heeee.et…,"23.88Ξ ($37,627)","Mar 04, 2021",23.88,37627,2021-03-04
0682,Sold,0x84c920,0x86af6e,"24Ξ ($33,975)","Feb 28, 2021",24,33975,2021-02-28
0682,Sold,Pranksy,0x84c920,"29.99Ξ ($45,915)","Feb 23, 2021",29.99,45915,2021-02-23
0685,Sold,11749472,3154456,"26Ξ ($46,188)","Mar 16, 2021",26,46188,2021-03-16
0686,Sold,0xc352b5,0x67e095,"45Ξ ($85,792)","Feb 21, 2021",45,85792,2021-02-21
0688,Sold,12800693,6689278,0.29Ξ ($74),"Sep 16, 2017",0.29,74,2017-09-16
0702,Sold,0x84c920,wookie.e…,"15Ξ ($27,364)","Mar 09, 2021",15,27364,2021-03-09
0702,Sold,0x86af6e,0x84c920,"17.78Ξ ($29,536)","Mar 07, 2021",17.78,29536,2021-03-07
0702,Sold,0x609630,0x86af6e,"17Ξ ($28,491)","Mar 07, 2021",17,28491,2021-03-07
0703,Sold,3379153,11626205,"19.99Ξ ($35,765)","Mar 11, 2021",19.99,35765,2021-03-11
0706,Sold,0xc352b5,393680,5Ξ ($633),"Jan 03, 2020",5,633,2020-01-03
0709,Sold,0x810ccb,wookie.e…,"20.25Ξ ($36,734)","Mar 20, 2021",20.25,36734,2021-03-20
0717,Sold,Zonked,0xa65d2a,"15.99Ξ ($32,972)","Apr 05, 2021",15.99,32972,2021-04-05
0717,Sold,Pranksy,Zonked,"16Ξ ($29,603)","Mar 31, 2021",16,29603,2021-03-31
0719,Sold,0xc352b5,Snowfro,2.25Ξ ($325),"Mar 29, 2019",2.25,325,2019-03-29
0721,Sold,0xc352b5,dafky200…,"40Ξ ($61,762)","Mar 01, 2021",40,61762,2021-03-01
0729,Sold,Pranksy,0x51636d,"26.99Ξ ($48,011)","Mar 11, 2021",26.99,48011,2021-03-11
0730,Sold,985197,15693900,"22Ξ ($39,888)","Mar 12, 2021",22,39888,2021-03-12
0741,Sold,0xc352b5,0x00bd3a,1.50Ξ ($404),"Jul 04, 2017",1.5,404,2017-07-04
0742,Sold,12800693,7435267,0.25Ξ ($340),"Jan 14, 2018",0.25,340,2018-01-14
0743,Sold,0xd446a6,0xd7227a,"15Ξ ($25,568)","Mar 23, 2021",15,25568,2021-03-23
0743,Sold,0xca63cd,0x939183,"21Ξ ($38,561)","Mar 20, 2021",21,38561,2021-03-20
0743,Sold,0xfc2a61,0xca63cd,"21Ξ ($37,483)","Mar 12, 2021",21,37483,2021-03-12
0744,Sold,0xc352b5,6858668,"69Ξ ($136,189)","Feb 19, 2021",69,136189,2021-02-19
0749,Sold,Pranksy,0xee433c,"29.99Ξ ($54,767)","Mar 11, 2021",29.99,54767,2021-03-11
0755,Sold,0xc352b5,sov,1.40Ξ ($415),"Aug 13, 2017",1.4,415,2017-08-13
0759,Sold,Pranksy,0x030098,"29.99Ξ ($49,494)","Feb 24, 2021",29.99,49494,2021-02-24
0765,Sold,0xc352b5,150475,"32Ξ ($64,183)","Feb 20, 2021",32,64183,2021-02-20
0772,Sold,0xc352b5,pelvis.e…,"24Ξ ($42,653)","Feb 17, 2021",24,42653,2021-02-17
0773,Sold,Pranksy,0x4e2a1b,"29.99Ξ ($46,544)","Feb 23, 2021",29.99,46544,2021-02-23
0777,Sold,jmg,TokenAng…,"18.99Ξ ($13,746)","Dec 30, 2020",18.99,13746,2020-12-30
0777,Sold,0xc352b5,jmg,1.50Ξ ($198),"Jan 01, 2020",1.5,198,2020-01-01
0782,Sold,Pranksy,0xeb725f,"29.99Ξ ($59,168)","Feb 21, 2021",29.99,59168,2021-02-21
0812,Sold,NFTinTin,0x12fc65,"20Ξ ($33,436)","Mar 24, 2021",20,33436,2021-03-24
0812,Sold,0xc352b5,NFTinTin,"6Ξ ($2,248)","Oct 11, 2020",6,2248,2020-10-11
0819,Sold,Deeze,0xdadbfa,"14Ξ ($26,041)","Feb 13, 2021",14,26041,2021-02-13
0819,Sold,0xc352b5,Deeze,"12Ξ ($21,022)","Feb 09, 2021",12,21022,2021-02-09
0820,Sold,Deeze,0x0ec348,"20.99Ξ ($43,530)","Apr 09, 2021",20.99,43530,2021-04-09
0820,Sold,devboi,wookie.e…,"19.80Ξ ($34,969)","Mar 12, 2021",19.8,34969,2021-03-12
0824,Sold,0xf1b658,0x29b1b2,"37Ξ ($51,957)","Jan 25, 2021",37,51957,2021-01-25
0824,Sold,2pac,0xf1b658,"30Ξ ($36,038)","Jan 18, 2021",30,36038,2021-01-18
0825,Sold,11844417,4965394,"38.99Ξ ($61,707)","Mar 04, 2021",38.99,61707,2021-03-04
0825,Sold,3679873,11844417,"32Ξ ($43,533)","Feb 28, 2021",32,43533,2021-02-28
0825,Sold,12800693,3679873,"14Ξ ($25,302)","Feb 15, 2021",14,25302,2021-02-15
0827,Sold,TokenAng…,0x29664e,"87.50Ξ ($187,842)","Apr 11, 2021",87.5,187842,2021-04-11
0827,Sold,0xc352b5,TokenAng…,"18Ξ ($24,264)","Jan 30, 2021",18,24264,2021-01-30
0836,Sold,12800693,45688,0.30Ξ ($72),"Jul 07, 2017",0.3,72,2017-07-07
0838,Sold,Hemba,0x7b97b7,3Ξ ($759),"Aug 05, 2017",3,759,2017-08-05
0838,Sold,0xc352b5,Hemba,0.51Ξ ($136),"Jul 06, 2017",0.51,136,2017-07-06
0839,Sold,0xddfdcb,0xede64a,"19.98Ξ ($32,876)","Mar 26, 2021",19.98,32876,2021-03-26
0839,Sold,Carlini8,0xddfdcb,"19.99Ξ ($39,438)","Feb 21, 2021",19.99,39438,2021-02-21
0839,Sold,Pranksy,Carlini8,"16.49Ξ ($32,100)","Feb 21, 2021",16.49,32100,2021-02-21
0842,Sold,12800693,150475,"25Ξ ($50,039)","Feb 20, 2021",25,50039,2021-02-20
0843,Sold,0x6611fe,beautifu…,"150Ξ ($268,746)","Mar 17, 2021",150,268746,2021-03-17
0843,Sold,Zieg,0x6611fe,0.50Ξ ($142),"Sep 20, 2017",0.5,142,2017-09-20
0843,Sold,0xc352b5,Zieg,1.60Ξ ($304),"Jul 17, 2017",1.6,304,2017-07-17
0845,Sold,Pranksy,0xdb2b36,"17Ξ ($30,885)","Mar 30, 2021",17,30885,2021-03-30
0846,Sold,blocktop…,0xce6259,"5.40Ξ ($6,968)","Jan 27, 2021",5.4,6968,2021-01-27
0848,Sold,sward.et…,0x4c3f90,"32.50Ξ ($56,734)","Mar 12, 2021",32.5,56734,2021-03-12
0850,Sold,14896094,5341160,"6.50Ξ ($8,367)","Jan 26, 2021",6.5,8367,2021-01-26
0852,Sold,16525921,1674312,"15Ξ ($30,656)","Apr 05, 2021",15,30656,2021-04-05
0854,Sold,0x0503ed,0xcda094,"21.90Ξ ($38,666)","Mar 19, 2021",21.9,38666,2021-03-19
0854,Sold,PSyRoX24,0x0503ed,"19.85Ξ ($35,813)","Mar 16, 2021",19.85,35813,2021-03-16
0855,Sold,0xfc2a61,0xa3c277,"28Ξ ($60,213)","Apr 11, 2021",28,60213,2021-04-11
0855,Sold,Pranksy,0xfc2a61,"24.99Ξ ($48,105)","Feb 21, 2021",24.99,48105,2021-02-21
0861,Sold,Ambrose,whiterab…,"3Ξ ($1,110)","Sep 12, 2020",3,1110,2020-09-12
0861,Sold,MrTpunks…,Ambrose,3Ξ ($609),"May 27, 2020",3,609,2020-05-27
0861,Sold,jmg,MrTpunks,2.35Ξ ($339),"Jan 10, 2020",2.35,339,2020-01-10
0861,Sold,0xc352b5,0x00bd3a,0.30Ξ ($86),"Jun 27, 2017",0.3,86,2017-06-27
0874,Sold,Pranksy,0xddb92a,"17.49Ξ ($33,982)","Feb 21, 2021",17.49,33982,2021-02-21
0875,Sold,Pranksy,PM_disco…,2.60Ξ ($598),"Jul 02, 2020",2.6,598,2020-07-02
0875,Sold,0xc352b5,Pranksy,1Ξ ($130),"Jan 01, 2020",1,130,2020-01-01
0883,Sold,0xc352b5,6689278,0.51Ξ ($136),"Jul 06, 2017",0.51,136,2017-07-06
0886,Sold,5031228,8902410,"23.99Ξ ($44,705)","Mar 13, 2021",23.99,44705,2021-03-13
0898,Sold,Pranksy,WuTangCl…,"22.22Ξ ($43,172)","Feb 21, 2021",22.22,43172,2021-02-21
0906,Sold,0x677b43,0xdbed69…,0.65Ξ ($141),"Aug 11, 2019",0.65,141,2019-08-11
0906,Sold,0xc352b5,0x677b43,0.40Ξ ($76),"Jul 11, 2017",0.4,76,2017-07-11
0907,Sold,12800693,6689278,0.25Ξ ($312),"Jan 10, 2018",0.25,312,2018-01-10
0916,Sold,0xc352b5,16394479,"15Ξ ($25,719)","Feb 06, 2021",15,25719,2021-02-06
0918,Sold,12800693,12239916,"40Ξ ($78,153)","Feb 21, 2021",40,78153,2021-02-21
0919,Sold,12800693,ddaavvee,"5Ξ ($1,824)","Sep 28, 2020",5,1824,2020-09-28
0920,Sold,0xb4bb41,7348023,"99.99Ξ ($151,273)","Feb 27, 2021",99.99,151273,2021-02-27
0920,Sold,0xc352b5,11844417,"50Ξ ($97,691)","Feb 21, 2021",50,97691,2021-02-21
0921,Sold,Pranksy,0x8f2a8b,"29.99Ξ ($56,233)","Feb 22, 2021",29.99,56233,2021-02-22
0923,Sold,21965,8704847,"19.89Ξ ($36,057)","Mar 11, 2021",19.89,36057,2021-03-11
0924,Sold,0x09d408,6608026,"135Ξ ($288,999)","Apr 12, 2021",135,288999,2021-04-12
0924,Sold,0xc352b5,644104,"16.50Ξ ($22,015)","Jan 28, 2021",16.5,22015,2021-01-28
0926,Sold,9563124,0xe1fd45,"21.99Ξ ($45,517)","Apr 10, 2021",21.99,45517,2021-04-10
0926,Sold,12800693,0x568cf5,"5Ξ ($1,818)","Sep 28, 2020",5,1818,2020-09-28
0931,Sold,Hemba,0x7b97b7,3Ξ ($759),"Aug 05, 2017",3,759,2017-08-05
0931,Sold,0xc352b5,Hemba,0.51Ξ ($136),"Jul 06, 2017",0.51,136,2017-07-06
0939,Sold,0xc352b5,WuTangCl…,"50Ξ ($99,542)","Feb 20, 2021",50,99542,2021-02-20
0944,Sold,0xc352b5,7435267,0.05Ξ ($14),"Jun 25, 2017",0.05,14,2017-06-25
0945,Sold,12800693,12196282,"75Ξ ($134,054)","Mar 15, 2021",75,134054,2021-03-15
0948,Sold,0xc352b5,16037029,"55Ξ ($96,668)","Mar 22, 2021",55,96668,2021-03-22
0949,Sold,0xc352b5,Snowfro,2Ξ ($269),"Mar 26, 2019",2,269,2019-03-26
0950,Sold,0x581b59,Tschuuul…,0.30Ξ ($68),"Jul 21, 2019",0.3,68,2019-07-21
0950,Sold,0x2ec5db,0x61e7e7,0.50Ξ ($123),"Jun 11, 2019",0.5,123,2019-06-11
0952,Sold,Pranksy,0x50664e,"27.99Ξ ($47,438)","Feb 23, 2021",27.99,47438,2021-02-23
0959,Sold,0xc352b5,Michel_M…,"15Ξ ($5,695)","Oct 13, 2020",15,5695,2020-10-13
0960,Sold,0xc352b5,ddaavvee,"4Ξ ($1,498)","Sep 15, 2020",4,1498,2020-09-15
0965,Sold,VonMises,Novo311,"5.50Ξ ($3,365)","Dec 25, 2020",5.5,3365,2020-12-25
0965,Sold,Pranksy,VonMises,"3Ξ ($1,155)","Sep 19, 2020",3,1155,2020-09-19
0965,Sold,0xc352b5,evkort,"3.50Ξ ($1,314)","Sep 15, 2020",3.5,1314,2020-09-15
0981,Sold,0x62bdc6,0x0e9aed,"15.48Ξ ($32,070)","Apr 08, 2021",15.48,32070,2021-04-08
0981,Sold,0xc352b5,0x568cf5,"6Ξ ($2,182)","Sep 28, 2020",6,2182,2020-09-28
0985,Sold,Carlini8,TokenAng…,3Ξ ($614),"May 05, 2020",3,614,2020-05-05
0985,Sold,0xc352b5,Carlini8,2Ξ ($255),"Jan 02, 2020",2,255,2020-01-02
0991,Sold,0xddfdcb,fazebank…,"37.99Ξ ($57,288)","Feb 25, 2021",37.99,57288,2021-02-25
0991,Sold,Pranksy,0xddfdcb,"25.99Ξ ($50,030)","Feb 21, 2021",25.99,50030,2021-02-21
0992,Sold,12800693,6112565,0.80Ξ ($361),"Dec 08, 2017",0.8,361,2017-12-08
0993,Sold,1094849,3218078,"24.50Ξ ($43,895)","Mar 17, 2021",24.5,43895,2021-03-17
0993,Sold,12800693,1094849,"5Ξ ($1,825)","Sep 28, 2020",5,1825,2020-09-28
0994,Sold,12800693,8593785,"11Ξ ($18,960)","Feb 08, 2021",11,18960,2021-02-08
0998,Sold,natealex,Novo311,3.50Ξ ($726),"May 17, 2020",3.5,726,2020-05-17
0998,Sold,TweetyPi…,natealex,1.55Ξ ($345),"Mar 04, 2020",1.55,345,2020-03-04
0998,Sold,0x0553de,TweetyPi…,2.50Ξ ($355),"Jan 06, 2020",2.5,355,2020-01-06
0998,Sold,jmg,0x0553de,0.79Ξ ($211),"May 31, 2019",0.79,211,2019-05-31
0998,Sold,0xc352b5,0x00bd3a,0.35Ξ ($67),"Jul 11, 2017",0.35,67,2017-07-11
1000,Sold,jmg,0x045436,"9.99Ξ ($3,535)","Sep 06, 2020",9.99,3535,2020-09-06
1000,Sold,0x0cea5b,jmg,0.75Ξ ($565),"Dec 26, 2017",0.75,565,2017-12-26
1002,Sold,jesterbo…,0x6ef237,"19.95Ξ ($35,785)","Feb 11, 2021",19.95,35785,2021-02-11
1003,Sold,7187448,7081348,"22Ξ ($40,457)","Mar 09, 2021",22,40457,2021-03-09
1003,Sold,15693454,7187448,"22Ξ ($33,965)","Mar 02, 2021",22,33965,2021-03-02
1005,Sold,tchen.et…,0x03490e,"42Ξ ($76,259)","Mar 19, 2021",42,76259,2021-03-19
1005,Sold,0xe03559,tchen.et…,"30Ξ ($47,116)","Mar 02, 2021",30,47116,2021-03-02
1006,Sold,0xe03559,14844345,"22Ξ ($34,347)","Mar 02, 2021",22,34347,2021-03-02
1010,Sold,13275108,9485902,"18Ξ ($28,601)","Feb 03, 2021",18,28601,2021-02-03
1011,Sold,0xe1c336,0xb34860,"13.50Ξ ($28,403)","Apr 03, 2021",13.5,28403,2021-04-03
1011,Sold,magicdhz…,0xe1c336,"26Ξ ($46,106)","Mar 15, 2021",26,46106,2021-03-15
1011,Sold,0xa3cb30,magicdhz…,"23.50Ξ ($44,280)","Mar 15, 2021",23.5,44280,2021-03-15
1012,Sold,5966219,45688,0.29Ξ ($70),"Jul 07, 2017",0.29,70,2017-07-07
1014,Sold,antunes_…,bigpault…,0.48Ξ ($132),"Jul 12, 2019",0.48,132,2019-07-12
1027,Sold,0xe97afe,barthazi…,"15Ξ ($27,331)","Feb 14, 2021",15,27331,2021-02-14
1027,Sold,Zieg,0xe97afe,0.22Ξ ($305),"Jan 13, 2018",0.22,305,2018-01-13
1029,Sold,ark1,ParaNFTw,0.25Ξ ($53),"Jul 29, 2019",0.25,53,2019-07-29
1030,Sold,0x67edd0,0xff2854,"19Ξ ($32,717)","Mar 27, 2021",19,32717,2021-03-27
1030,Sold,EliteCat…,0x67edd0,"9.49Ξ ($17,070)","Feb 16, 2021",9.49,17070,2021-02-16
1030,Sold,0x27c79a,GoWest23,0.73Ξ ($118),"Jan 16, 2020",0.73,118,2020-01-16
1030,Sold,Pranksy,0x27c79a,0.50Ξ ($72),"Jan 07, 2020",0.5,72,2020-01-07
1032,Sold,shilpixe…,richerd.…,"17Ξ ($34,063)","Apr 02, 2021",17,34063,2021-04-02
1035,Sold,5966219,5111856,"8.25Ξ ($14,765)","Feb 11, 2021",8.25,14765,2021-02-11
1036,Sold,13156629,0xd3a8a7,1Ξ ($202),"May 22, 2020",1,202,2020-05-22
1036,Sold,16745492,0xc8c115,0.15Ξ ($42),"Jun 25, 2017",0.15,42,2017-06-25
1041,Sold,0x5b098b,7910798,"22.90Ξ ($47,864)","Apr 10, 2021",22.9,47864,2021-04-10
1044,Sold,1913727,2802340,"27.70Ξ ($49,974)","Mar 11, 2021",27.7,49974,2021-03-11
1044,Sold,5966219,11626205,"7.90Ξ ($13,489)","Feb 08, 2021",7.9,13489,2021-02-08
1045,Sold,ross_VRO…,0xa1b2c1,0.45Ξ ($94),"Sep 17, 2019",0.45,94,2019-09-17
1050,Sold,0xd4fa6e,sov,0.34Ξ ($102),"Jun 24, 2017",0.34,102,2017-06-24
1052,Sold,Goop,josie,0.44Ξ ($59),"Jan 04, 2020",0.44,59,2020-01-04
1052,Sold,Pranksy,Goop,0.40Ξ ($54),"Dec 30, 2019",0.4,54,2019-12-30
1054,Sold,48442,8008732,0.19Ξ ($53),"Jun 30, 2017",0.19,53,2017-06-30
1054,Sold,16745492,48442,0.14Ξ ($36),"Jun 26, 2017",0.14,36,2017-06-26
1060,Sold,jmg,0xc72f3a,0.99Ξ ($139),"Mar 20, 2019",0.99,139,2019-03-20
1060,Sold,0x5b098b,0x00bd3a,0.35Ξ ($118),"Oct 13, 2017",0.35,118,2017-10-13
1061,Sold,13358210,7823584,0.18Ξ ($50),"Jul 03, 2017",0.18,50,2017-07-03
1062,Sold,0x7e5280,robers,0.75Ξ ($129),"Apr 22, 2019",0.75,129,2019-04-22
1068,Sold,11268359,4479796,"33Ξ ($58,730)","Mar 18, 2021",33,58730,2021-03-18
1068,Sold,13367678,11268359,"33Ξ ($59,840)","Mar 17, 2021",33,59840,2021-03-17
1069,Sold,13358210,7823584,0.12Ξ ($34),"Jul 03, 2017",0.12,34,2017-07-03
1071,Sold,ark1,7478,0.30Ξ ($63),"Jul 28, 2019",0.3,63,2019-07-28
1072,Sold,Kittypad,0x5e43e1,"15Ξ ($28,596)","Feb 18, 2021",15,28596,2021-02-18
1072,Sold,Goop,Kittypad,0.44Ξ ($56),"Jan 02, 2020",0.44,56,2020-01-02
1072,Sold,Pranksy,Goop,0.40Ξ ($54),"Dec 30, 2019",0.4,54,2019-12-30
1074,Sold,11551919,2698614,"5Ξ ($6,282)","Jan 20, 2021",5,6282,2021-01-20
1075,Sold,0x967ee5,0xf90bd2,"29.99Ξ ($64,300)","Apr 12, 2021",29.99,64300,2021-04-12
1075,Sold,0x287b15,0x967ee5,"22Ξ ($37,658)","Mar 28, 2021",22,37658,2021-03-28
1075,Sold,Zieg,0x287b15,0.19Ξ ($200),"Jan 16, 2018",0.19,200,2018-01-16
1083,Sold,55241,7823584,0.18Ξ ($53),"Oct 26, 2017",0.18,53,2017-10-26
1083,Sold,6827056,55241,0.39Ξ ($96),"Jul 08, 2017",0.39,96,2017-07-08
1084,Sold,13960411,13405970,"23Ξ ($41,776)","Mar 19, 2021",23,41776,2021-03-19
1084,Sold,9099419,13960411,"3Ξ ($1,417)","Nov 18, 2020",3,1417,2020-11-18
1084,Sold,393680,9099419,"4.75Ξ ($1,798)","Oct 15, 2020",4.75,1798,2020-10-15
1086,Sold,ddaavvee,0xdbf584,"26Ξ ($47,024)","Feb 14, 2021",26,47024,2021-02-14
1092,Sold,0x86f391,0xfad832,"27.50Ξ ($49,407)","Mar 18, 2021",27.5,49407,2021-03-18
1092,Sold,Deeze,0x86f391,"30.50Ξ ($45,663)","Mar 05, 2021",30.5,45663,2021-03-05
1092,Sold,EliteCat…,Deeze,"12Ξ ($19,424)","Feb 05, 2021",12,19424,2021-02-05
1092,Sold,0xbfa319,GoWest23,2.06Ξ ($278),"Jan 04, 2020",2.06,278,2020-01-04
1092,Sold,0xc2ac3c,0xbfa319,0.23Ξ ($46),"Oct 25, 2018",0.23,46,2018-10-25
1092,Sold,Hemba,0xb11d6a,0.15Ξ ($70),"Nov 28, 2017",0.15,70,2017-11-28
1093,Sold,0x744739,0x7c00c9…,1Ξ ($137),"Dec 29, 2018",1,137,2018-12-29
1094,Sold,ross_VRO…,0xae4d83,"51Ξ ($83,931)","Mar 06, 2021",51,83931,2021-03-06
1094,Sold,0xdcd2d6,ross_VRO…,1.50Ξ ($198),"Dec 30, 2019",1.5,198,2019-12-30
1096,Sold,RayoVac,0xc9ab58,"6.50Ξ ($8,556)","Feb 01, 2021",6.5,8556,2021-02-01
1096,Sold,0xde0193,0xff40d2,"4Ξ ($2,931)","Dec 31, 2020",4,2931,2020-12-31
1097,Sold,Zieg,0x28784d,0.12Ξ ($151),"Jan 12, 2018",0.12,151,2018-01-12
1100,Sold,heeee.et…,Snowfro,"24.50Ξ ($46,434)","Mar 14, 2021",24.5,46434,2021-03-14
1100,Sold,0x6a43e6,heeee.et…,"19.49Ξ ($37,939)","Feb 21, 2021",19.49,37939,2021-02-21
1100,Sold,0xc04f55,0x6a43e6,"15.95Ξ ($31,481)","Feb 19, 2021",15.95,31481,2021-02-19
1100,Sold,0x58164b,Dude_Nak…,0.05Ξ ($26),"Apr 18, 2018",0.05,26,2018-04-18
1102,Sold,0x0e4437,natealex,"30Ξ ($50,634)","Mar 27, 2021",30,50634,2021-03-27
1102,Sold,EliteCat…,0x0e4437,"29Ξ ($41,995)","Feb 27, 2021",29,41995,2021-02-27
1102,Sold,boywitht…,GoWest23,0.39Ξ ($115),"Jul 01, 2019",0.39,115,2019-07-01
1102,Sold,jmg,boywitht…,0.19Ξ ($85),"Jul 20, 2018",0.19,85,2018-07-20
1102,Sold,0x58164b,jmg,0.10Ξ ($70),"Apr 24, 2018",0.1,70,2018-04-24
1105,Sold,0xcc7c33,10696712,"30Ξ ($62,373)","Apr 04, 2021",30,62373,2021-04-04
1111,Sold,TJ2010,VonMises,1.11Ξ ($446),"Sep 03, 2020",1.11,446,2020-09-03
1115,Sold,0xa3cb30,TJ2010,"7Ξ ($2,543)","Oct 09, 2020",7,2543,2020-10-09
1116,Sold,Hemba,0x287b15,0.15Ξ ($204),"Jan 14, 2018",0.15,204,2018-01-14
1119,Sold,Pranksy,0x29b1b2,"300Ξ ($442,857)","Feb 26, 2021",300,442857,2021-02-26
1119,Sold,0x365e35,Pranksy,"200Ξ ($326,928)","Feb 24, 2021",200,326928,2021-02-24
1123,Sold,Pranksy,0x09d408,"60Ξ ($109,076)","Mar 12, 2021",60,109076,2021-03-12
1123,Sold,curating…,Pranksy,"16Ξ ($27,937)","Feb 09, 2021",16,27937,2021-02-09
1127,Sold,0xf1b658,scalynel…,"10Ξ ($13,612)","Jan 29, 2021",10,13612,2021-01-29
1127,Sold,Pranksy,0x5b331e,"9.99Ξ ($12,117)","Jan 07, 2021",9.99,12117,2021-01-07
1127,Sold,TokenAng…,2pac,"15Ξ ($9,420)","Dec 25, 2020",15,9420,2020-12-25
1127,Sold,Slacktid…,TokenAng…,"6Ξ ($2,112)","Sep 27, 2020",6,2112,2020-09-27
1127,Sold,0xc2ac3c,0x976b59,0.80Ξ ($180),"Oct 02, 2018",0.8,180,2018-10-02
1127,Sold,0xd8e806,0xb11d6a,0.25Ξ ($72),"Sep 23, 2017",0.25,72,2017-09-23
1129,Sold,5734076,8719534,"26.49Ξ ($46,741)","Mar 17, 2021",26.49,46741,2021-03-17
1142,Sold,5734076,5333869,"26.99Ξ ($48,011)","Mar 11, 2021",26.99,48011,2021-03-11
1143,Sold,Hemba,0x7a341c,0.15Ξ ($42),"Jun 30, 2017",0.15,42,2017-06-30
1144,Sold,Cyborg,0x58164b,0.28Ξ ($63),"Aug 01, 2017",0.28,63,2017-08-01
1146,Sold,Pranksy,Cryptokk…,0.38Ξ ($55),"Nov 25, 2019",0.38,55,2019-11-25
1146,Sold,0x00d7c9,Pranksy,0.40Ξ ($109),"Jun 20, 2019",0.4,109,2019-06-20
1146,Sold,0x0a4eaf…,0x00d7c9,0.37Ξ ($91),"Jul 08, 2017",0.37,91,2017-07-08
1146,Sold,0x4dcaf3,0x0a4eaf…,0.30Ξ ($80),"Jul 06, 2017",0.3,80,2017-07-06
1146,Sold,Hemba,0x4dcaf3,0.15Ξ ($43),"Jun 27, 2017",0.15,43,2017-06-27
1147,Sold,0x6611fe,14439766,"43Ξ ($68,053)","Mar 04, 2021",43,68053,2021-03-04
1151,Sold,5734076,553703,"49.99Ξ ($89,351)","Mar 15, 2021",49.99,89351,2021-03-15
1155,Sold,0x00bd3a,0x7a341c,0.19Ξ ($50),"Jul 01, 2017",0.19,50,2017-07-01
1155,Sold,Hemba,0x00bd3a,0.15Ξ ($44),"Jun 29, 2017",0.15,44,2017-06-29
1156,Sold,0xe45df5,Pixls,0.25Ξ ($22),"Dec 13, 2018",0.25,22,2018-12-13
1160,Sold,0x5b098b,0x38caf2,"6.27Ξ ($7,371)","Jan 08, 2021",6.27,7371,2021-01-08
1160,Sold,Hemba,0x5b098b,0.15Ξ ($43),"Jun 27, 2017",0.15,43,2017-06-27
1161,Sold,4505390,markfher…,"16.25Ξ ($32,265)","Apr 07, 2021",16.25,32265,2021-04-07
1161,Sold,14795574,0x44bf2e,"13.50Ξ ($28,403)","Apr 03, 2021",13.5,28403,2021-04-03
1161,Sold,10734384,0xe1c336,"26.99Ξ ($48,023)","Mar 15, 2021",26.99,48023,2021-03-15
1162,Sold,0x414201,11844417,"47Ξ ($92,727)","Feb 21, 2021",47,92727,2021-02-21
1164,Sold,Cyborg,0x7132c9,0.50Ξ ($112),"Jul 12, 2017",0.5,112,2017-07-12
1170,Sold,pixelpet…,snowfro,0.18Ξ ($18),"Dec 05, 2018",0.18,18,2018-12-05
1170,Sold,Hemba,pixelpet…,0.11Ξ ($75),"Apr 28, 2018",0.11,75,2018-04-28
1176,Sold,shilpixe…,0xdaef5b,"15Ξ ($28,371)","Feb 18, 2021",15,28371,2021-02-18
1178,Sold,13401139,csmcbrid…,0.55Ξ ($80),"Feb 21, 2019",0.55,80,2019-02-21
1180,Sold,Cyborg,Kenney,0.10Ξ ($105),"Jan 16, 2018",0.1,105,2018-01-16
1180,Sold,0x005700,Cyborg,0.12Ξ ($42),"Aug 28, 2017",0.12,42,2017-08-28
1183,Sold,0xcc7c33,7348023,"16.90Ξ ($21,655)","Jan 28, 2021",16.9,21655,2021-01-28
1190,Sold,natealex,gmoney,"32Ξ ($19,070)","Dec 05, 2020",32,19070,2020-12-05
1190,Sold,0x0ed6fe,natealex,"32Ξ ($12,533)","Nov 01, 2020",32,12533,2020-11-01
1196,Sold,Pranksy,0x75a285,"25Ξ ($45,990)","Mar 18, 2021",25,45990,2021-03-18
1196,Sold,0xa3cb30,Pranksy,"12.50Ξ ($21,707)","Feb 09, 2021",12.5,21707,2021-02-09
1205,Sold,11421942,6811088,"20.50Ξ ($42,374)","Apr 08, 2021",20.5,42374,2021-04-08
1205,Sold,10734384,11421942,"19.50Ξ ($36,136)","Mar 30, 2021",19.5,36136,2021-03-30
1210,Sold,2842985,8338175,"75Ξ ($112,653)","Feb 27, 2021",75,112653,2021-02-27
1211,Sold,0x00bd3a,0x717403,0.35Ξ ($93),"Jul 05, 2017",0.35,93,2017-07-05
1211,Sold,Hemba,0x00bd3a,0.21Ξ ($60),"Jul 02, 2017",0.21,60,2017-07-02
1212,Sold,11844417,1358190,"23Ξ ($46,402)","Apr 05, 2021",23,46402,2021-04-05
1212,Sold,11626205,11844417,"17.78Ξ ($35,078)","Feb 21, 2021",17.78,35078,2021-02-21
1212,Sold,5966219,11626205,"10.50Ξ ($19,162)","Feb 14, 2021",10.5,19162,2021-02-14
1212,Sold,9026146,5966219,0.29Ξ ($71),"Jul 08, 2017",0.29,71,2017-07-08
1215,Sold,0x0a4eaf…,7478,0.32Ξ ($38),"Jan 20, 2019",0.32,38,2019-01-20
1215,Sold,Cyborg,0x0a4eaf…,0.28Ξ ($53),"Jul 28, 2017",0.28,53,2017-07-28
1216,Sold,5966219,6689278,0.45Ξ ($111),"Jul 08, 2017",0.45,111,2017-07-08
1216,Sold,6827056,5966219,0.15Ξ ($46),"Jun 24, 2017",0.15,46,2017-06-24
1224,Sold,5734076,sillytun…,"23Ξ ($41,694)","Mar 11, 2021",23,41694,2021-03-11
1225,Sold,4656795,VonMises,2Ξ ($378),"Apr 23, 2020",2,378,2020-04-23
1226,Sold,Hemba,sov,0.10Ξ ($47),"Nov 26, 2017",0.1,47,2017-11-26
1231,Sold,13358210,7435267,0.06Ξ ($17),"Jun 27, 2017",0.06,17,2017-06-27
1232,Sold,TJ2010,DANNY,"11.11Ξ ($3,928)","Sep 06, 2020",11.11,3928,2020-09-06
1234,Sold,0x0713a6,CryptoNo…,"5.50Ξ ($2,063)","Oct 15, 2020",5.5,2063,2020-10-15
1234,Sold,0x73e4a2,0x0713a6,"5Ξ ($1,817)","Sep 28, 2020",5,1817,2020-09-28
1236,Sold,DjangoBi…,0x3ab536,0.10Ξ ($28),"Aug 15, 2018",0.1,28,2018-08-15
1236,Sold,0x515a82,0x9be1c7,0.22Ξ ($61),"Jul 03, 2017",0.22,61,2017-07-03
1237,Sold,0x577ebc,district…,"35Ξ ($55,728)","Feb 04, 2021",35,55728,2021-02-04
1238,Sold,kyloren,0x3c1d6d,"5Ξ ($6,276)","Jan 24, 2021",5,6276,2021-01-24
1238,Sold,0x48db19,kyloren,0.89Ξ ($315),"Sep 09, 2020",0.89,315,2020-09-09
1240,Sold,sumrtime…,0x30e924,"46Ξ ($76,945)","Mar 23, 2021",46,76945,2021-03-23
1240,Sold,0x6611fe,sumrtime…,"32Ξ ($49,064)","Feb 25, 2021",32,49064,2021-02-25
1241,Sold,0x09d408,0x12c9c4,"6Ξ ($10,309)","Feb 08, 2021",6,10309,2021-02-08
1241,Sold,Loopify,0x09d408,"5.50Ξ ($6,971)","Jan 27, 2021",5.5,6971,2021-01-27
1241,Sold,0xe4f0ac,Loopify,"5Ξ ($4,908)","Jan 11, 2021",5,4908,2021-01-11
1242,Sold,0xe4f0ac,gCAN,"3Ξ ($1,770)","Dec 05, 2020",3,1770,2020-12-05
1243,Sold,0xef784c,3548383,"84.99Ξ ($151,353)","Mar 17, 2021",84.99,151353,2021-03-17
1243,Sold,0x3dee68,15693900,"59.99Ξ ($111,359)","Mar 14, 2021",59.99,111359,2021-03-14
1243,Sold,0x365e35,4058728,"31Ξ ($51,851)","Feb 24, 2021",31,51851,2021-02-24
1244,Sold,VonMises,0xa163a1,1.95Ξ ($403),"May 28, 2020",1.95,403,2020-05-28
1244,Sold,7478,VonMises,1Ξ ($212),"May 19, 2020",1,212,2020-05-19
1244,Sold,MrTpunks…,7478,0.60Ξ ($133),"Feb 07, 2020",0.6,133,2020-02-07
1244,Sold,ross_VRO…,MrTpunks…,0.52Ξ ($74),"Jan 07, 2020",0.52,74,2020-01-07
1244,Sold,0xe45df5,ross_VRO…,0.30Ξ ($43),"Jan 01, 2019",0.3,43,2019-01-01
1251,Sold,0x62bdc6,heeee.et…,"24.97Ξ ($46,050)","Mar 31, 2021",24.97,46050,2021-03-31
1251,Sold,0xa3cb30,0x62bdc6,"19.99Ξ ($36,712)","Mar 30, 2021",19.99,36712,2021-03-30
1252,Sold,14966261,3001665,0.25Ξ ($30),"Dec 22, 2018",0.25,30,2018-12-22
1253,Sold,Pranksy,0x29b1b2,"48.99Ξ ($76,307)","Mar 02, 2021",48.99,76307,2021-03-02
1253,Sold,0x577ebc,Pranksy,"20.69Ξ ($33,277)","Feb 04, 2021",20.69,33277,2021-02-04
1254,Sold,2233870,45688,0.31Ξ ($69),"Jul 18, 2017",0.31,69,2017-07-18
1256,Sold,ross_VRO…,GtC,0.40Ξ ($72),"Sep 02, 2019",0.4,72,2019-09-02
1256,Sold,0x052686,ross_VRO…,0.30Ξ ($42),"Mar 28, 2019",0.3,42,2019-03-28
1257,Sold,0x00bd3a,0x7a341c,0.19Ξ ($53),"Jun 30, 2017",0.19,53,2017-06-30
1257,Sold,Hemba,0x00bd3a,0.15Ξ ($43),"Jun 27, 2017",0.15,43,2017-06-27
1258,Sold,4656795,14129673,0.45Ξ ($63),"Dec 24, 2018",0.45,63,2018-12-24
1259,Sold,13358210,7435267,0.05Ξ ($14),"Jun 27, 2017",0.05,14,2017-06-27
1264,Sold,0x000c1c…,0x463493,0.50Ξ ($70),"Dec 24, 2018",0.5,70,2018-12-24
1265,Sold,Hemba,0x96b48f,0.11Ξ ($56),"Dec 11, 2017",0.11,56,2017-12-11
1266,Sold,1052761,6961524,"25Ξ ($41,795)","Mar 24, 2021",25,41795,2021-03-24
1266,Sold,4134692,1052761,"25Ξ ($49,772)","Feb 20, 2021",25,49772,2021-02-20
1266,Sold,12758076,4134692,0.12Ξ ($98),"Dec 19, 2017",0.12,98,2017-12-19
1266,Sold,8533182,11607402,0.05Ξ ($15),"Sep 30, 2017",0.05,15,2017-09-30
1269,Sold,15003820,15693900,"25Ξ ($45,327)","Mar 12, 2021",25,45327,2021-03-12
1270,Sold,8533182,8350887,0.10Ξ ($70),"Dec 13, 2017",0.1,70,2017-12-13
1274,Sold,0x585f98,7435267,0.05Ξ ($16),"Jun 28, 2017",0.05,16,2017-06-28
1275,Sold,4774681,14763803,"6Ξ ($7,807)","Jan 31, 2021",6,7807,2021-01-31
1280,Sold,0x07c5ea,6094728,"13.25Ξ ($25,348)","Feb 18, 2021",13.25,25348,2021-02-18
1280,Sold,0xc272ed,509418,"12Ξ ($22,956)","Feb 18, 2021",12,22956,2021-02-18
1284,Sold,Hemba,0x7a341c,0.25Ξ ($67),"Jul 04, 2017",0.25,67,2017-07-04
1286,Sold,7434510,14673393,0.11Ξ ($92),"Feb 21, 2018",0.11,92,2018-02-21
1288,Sold,1252139,12452063,"26.99Ξ ($55,789)","Apr 08, 2021",26.99,55789,2021-04-08
1288,Sold,10734384,1252139,"26.99Ξ ($47,808)","Mar 22, 2021",26.99,47808,2021-03-22
1290,Sold,Hemba,0x00b278,0.25Ξ ($67),"Jul 04, 2017",0.25,67,2017-07-04
1299,Sold,0x3efe8b,0x75a285,"24.95Ξ ($43,511)","Mar 19, 2021",24.95,43511,2021-03-19
1299,Sold,0x23b50b,0x3efe8b,"23.95Ξ ($35,475)","Feb 27, 2021",23.95,35475,2021-02-27
1299,Sold,0x3e17fa,0x48c85c,"8.90Ξ ($15,615)","Feb 16, 2021",8.9,15615,2021-02-16
1299,Sold,0x61d18e,0x3e17fa,"8.72Ξ ($15,545)","Feb 15, 2021",8.72,15545,2021-02-15
1299,Sold,shilpixe…,0x61d18e,0.25Ξ ($31),"Nov 28, 2018",0.25,31,2018-11-28
1302,Sold,0xa3cb30,5333848,"15.50Ξ ($32,029)","Apr 04, 2021",15.5,32029,2021-04-04
1306,Sold,11976269,10898397,0.09Ξ ($38),"Dec 06, 2017",0.09,38,2017-12-06
1311,Sold,5734076,11681716,"26Ξ ($45,534)","Mar 11, 2021",26,45534,2021-03-11
1314,Sold,12743405,8275292,"23Ξ ($36,105)","Mar 02, 2021",23,36105,2021-03-02
1315,Sold,755965,5269070,"35Ξ ($57,216)","Mar 26, 2021",35,57216,2021-03-26
1315,Sold,13358210,6689278,0.20Ξ ($49),"Jul 08, 2017",0.2,49,2017-07-08
1316,Sold,12670457,942439,"14.66Ξ ($28,923)","Feb 21, 2021",14.66,28923,2021-02-21
1316,Sold,52816,12670457,"10.50Ξ ($20,294)","Feb 21, 2021",10.5,20294,2021-02-21
1320,Sold,0xa3cb30,13252568,"19.99Ξ ($36,712)","Mar 30, 2021",19.99,36712,2021-03-30
1321,Sold,0xd4442b,🏃🏻‍♂.e…,"15.50Ξ ($32,879)","Apr 07, 2021",15.5,32879,2021-04-07
1321,Sold,0xeada96,0xd4442b,"14.38Ξ ($30,429)","Apr 06, 2021",14.38,30429,2021-04-06
1321,Sold,0xa3cb30,0xeada96,"18.50Ξ ($33,966)","Mar 31, 2021",18.5,33966,2021-03-31
1322,Sold,10734384,8010080,"6.21Ξ ($2,182)","Oct 05, 2020",6.21,2182,2020-10-05
1323,Sold,0xa3cb30,15139826,"17Ξ ($34,773)","Apr 08, 2021",17,34773,2021-04-08
1324,Sold,Pixls,0x98c488,1.38Ξ ($286),"May 27, 2020",1.38,286,2020-05-27
1324,Sold,SharkWha…,Pixls,1.24Ξ ($251),"May 27, 2020",1.24,251,2020-05-27
1324,Sold,satman,SharkWha…,0.99Ξ ($199),"May 22, 2020",0.99,199,2020-05-22
1324,Sold,Fearless…,satman,0.50Ξ ($69),"Mar 13, 2020",0.5,69,2020-03-13
1324,Sold,0x42e148,Fearless…,0.30Ξ ($35),"Jan 24, 2019",0.3,35,2019-01-24
1324,Sold,Cyborg,0x42e148,0.20Ξ ($44),"Aug 04, 2017",0.2,44,2017-08-04
1324,Sold,Hemba,Cyborg,0.08Ξ ($23),"Jun 29, 2017",0.08,23,2017-06-29
1325,Sold,12502685,1688420,"24.88Ξ ($52,548)","Apr 10, 2021",24.88,52548,2021-04-10
1325,Sold,5858674,12502685,"19.50Ξ ($40,307)","Apr 08, 2021",19.5,40307,2021-04-08
1325,Sold,10734384,5858674,"19Ξ ($32,483)","Mar 28, 2021",19,32483,2021-03-28
1326,Sold,10734384,12239916,"9.50Ξ ($12,438)","Jan 28, 2021",9.5,12438,2021-01-28
1330,Sold,349150,393680,3Ξ ($554),"May 10, 2020",3,554,2020-05-10
1330,Sold,12758076,349150,0.45Ξ ($56),"Jan 19, 2019",0.45,56,2019-01-19
1330,Sold,14215174,11607402,0.30Ξ ($86),"Sep 23, 2017",0.3,86,2017-09-23
1330,Sold,16451452,14215174,0.50Ξ ($108),"Jul 21, 2017",0.5,108,2017-07-21
1331,Sold,Hemba,0x00b278,0.25Ξ ($67),"Jul 04, 2017",0.25,67,2017-07-04
1334,Sold,509418,3742239,"8.75Ξ ($15,943)","Feb 14, 2021",8.75,15943,2021-02-14
1334,Sold,4774681,13216600,"6Ξ ($7,898)","Feb 01, 2021",6,7898,2021-02-01
1335,Sold,0x033ee7,0xd2d70b,"3.98Ξ ($5,294)","Jan 21, 2021",3.98,5294,2021-01-21
1335,Sold,Novo311,0x033ee7,"2.98Ξ ($1,031)","Sep 24, 2020",2.98,1031,2020-09-24
1335,Sold,0x48db19,Novo311,2Ξ ($756),"Sep 15, 2020",2,756,2020-09-15
1338,Sold,antunes_…,helpchai…,1.50Ξ ($282),"Feb 03, 2020",1.5,282,2020-02-03
1338,Sold,Cyborg,antunes_…,0.40Ξ ($77),"May 11, 2019",0.4,77,2019-05-11
1338,Sold,Hemba,Cyborg,0.08Ξ ($25),"Jun 29, 2017",0.08,25,2017-06-29
1343,Sold,0xe4f0ac,justinva…,"2.50Ξ ($1,395)","Dec 12, 2020",2.5,1395,2020-12-12
1347,Sold,15003820,5786847,"8.50Ξ ($15,441)","Feb 15, 2021",8.5,15441,2021-02-15
1348,Sold,6689278,16740588,"95Ξ ($201,989)","Apr 11, 2021",95,201989,2021-04-11
1349,Sold,0xc36817,0x387af9,"23.90Ξ ($36,368)","Mar 01, 2021",23.9,36368,2021-03-01
1349,Sold,OnlyToas…,0xc36817,"5.85Ξ ($10,415)","Feb 11, 2021",5.85,10415,2021-02-11
1349,Sold,0x86f032,OnlyToas…,"4.99Ξ ($8,095)","Feb 08, 2021",4.99,8095,2021-02-08
1349,Sold,0x48db19,0x86f032,1Ξ ($388),"Sep 04, 2020",1,388,2020-09-04
1350,Sold,0x7e455c,wookie.e…,"22.49Ξ ($35,305)","Mar 02, 2021",22.49,35305,2021-03-02
1350,Sold,0x577ebc,0x241ec7,"10Ξ ($18,340)","Feb 17, 2021",10,18340,2021-02-17
1351,Sold,Korniej,Collecti…,"3.21Ξ ($1,127)","Sep 24, 2020",3.21,1127,2020-09-24
1351,Sold,Pranksy,Korniej,2.49Ξ ($807),"Sep 24, 2020",2.49,807,2020-09-24
1351,Sold,0xbfa319,evkort,"3.63Ξ ($1,304)","Sep 13, 2020",3.63,1304,2020-09-13
1351,Sold,Hemba,0xbfa319,0.10Ξ ($43),"Nov 30, 2017",0.1,43,2017-11-30
1352,Sold,5734076,10403013,"24.99Ξ ($44,094)","Mar 17, 2021",24.99,44094,2021-03-17
1353,Sold,0x00d7c9,TokenAng…,0.50Ξ ($136),"Jun 20, 2019",0.5,136,2019-06-20
1354,Sold,0xabf107,9364611,"48.88Ξ ($101,370)","Apr 09, 2021",48.88,101370,2021-04-09
1354,Sold,0x64d49a,11268359,"38.88Ξ ($80,631)","Apr 09, 2021",38.88,80631,2021-04-09
1354,Sold,0x609630,6608026,"29.99Ξ ($55,308)","Mar 31, 2021",29.99,55308,2021-03-31
1354,Sold,0x577ebc,6329904,"49.99Ξ ($89,784)","Mar 16, 2021",49.99,89784,2021-03-16
1359,Sold,Hemba,0x00b278,0.25Ξ ($67),"Jul 04, 2017",0.25,67,2017-07-04
1360,Sold,MrNFT,CryptoPa…,2.17Ξ ($738),"Sep 23, 2020",2.17,738,2020-09-23
1360,Sold,Pranksy,MrNFT,1.75Ξ ($603),"Sep 22, 2020",1.75,603,2020-09-22
1360,Sold,capital_…,evkort,1.89Ξ ($679),"Sep 13, 2020",1.89,679,2020-09-13
1360,Sold,Pranksy,capital_…,1Ξ ($232),"Jul 02, 2020",1,232,2020-07-02
1360,Sold,0xb6be4d,Pranksy,0.90Ξ ($182),"May 22, 2020",0.9,182,2020-05-22
1361,Sold,0x0a4053,0x940a26,"37Ξ ($57,764)","Mar 04, 2021",37,57764,2021-03-04
1362,Sold,0x07c5ea,0x0e6167,"16.25Ξ ($32,060)","Feb 21, 2021",16.25,32060,2021-02-21
1362,Sold,0x422fac,0x07c5ea,"16Ξ ($29,344)","Feb 17, 2021",16,29344,2021-02-17
1362,Sold,Dude_Nak…,0xe5e771,"6.95Ξ ($2,536)","Sep 28, 2020",6.95,2536,2020-09-28
1362,Sold,j1mmy,Dude_Nak…,0.52Ξ ($71),"Jan 05, 2020",0.52,71,2020-01-05
1362,Sold,0x0553de,j1mmy,0.39Ξ ($68),"Apr 07, 2019",0.39,68,2019-04-07
1362,Sold,0x1fa0ec,0x0553de,0.30Ξ ($36),"Jan 20, 2019",0.3,36,2019-01-20
1362,Sold,Hemba,0x1fa0ec,0.12Ξ ($55),"Dec 02, 2017",0.12,55,2017-12-02
1369,Sold,0x93b0b1,0xe6d2a9,"14Ξ ($27,085)","Feb 18, 2021",14,27085,2021-02-18
1369,Sold,aviexkak…,0x93b0b1,"8.10Ξ ($14,907)","Feb 14, 2021",8.1,14907,2021-02-14
1369,Sold,pinkiepi…,0x641cf1,"4.30Ξ ($2,682)","Dec 22, 2020",4.3,2682,2020-12-22
1369,Sold,0xf2d515,2pac,"3.30Ξ ($2,011)","Nov 24, 2020",3.3,2011,2020-11-24
1369,Sold,0x005700,An111,0.11Ξ ($114),"Jan 19, 2018",0.11,114,2018-01-19
1374,Sold,Cyborg,0x03911f,"1.40Ξ ($1,059)","Jan 01, 2018",1.4,1059,2018-01-01
1374,Sold,0x00bd3a,Cyborg,1.89Ξ ($554),"Jun 29, 2017",1.89,554,2017-06-29
1374,Sold,0x5462de,0x00bd3a,1Ξ ($316),"Jun 28, 2017",1,316,2017-06-28
1375,Sold,0xc272ed,11163713,"22Ξ ($37,629)","Mar 23, 2021",22,37629,2021-03-23
1376,Sold,0x007508,0xc77fa6,"55Ξ ($83,283)","Feb 27, 2021",55,83283,2021-02-27
1378,Sold,8920818,8051840,"5.48Ξ ($9,006)","Feb 03, 2021",5.48,9006,2021-02-03
1378,Sold,13886183,8920818,"5.33Ξ ($8,203)","Feb 03, 2021",5.33,8203,2021-02-03
1378,Sold,15003820,13886183,"5Ξ ($6,502)","Jan 27, 2021",5,6502,2021-01-27
1379,Sold,3van.eth,0x0ebd1a,"11.98Ξ ($21,174)","Feb 17, 2021",11.98,21174,2021-02-17
1379,Sold,0x6611fe,3van.eth,"9.80Ξ ($17,712)","Feb 15, 2021",9.8,17712,2021-02-15
1380,Sold,Hemba,0x717403,0.05Ξ ($13),"Jun 26, 2017",0.05,13,2017-06-26
1384,Sold,2233870,45688,0.31Ξ ($69),"Jul 18, 2017",0.31,69,2017-07-18
1385,Sold,0xb155c5,0x2978f0,"18Ξ ($30,167)","Mar 07, 2021",18,30167,2021-03-07
1385,Sold,0x84c920,0xb155c5,"17.50Ξ ($26,577)","Mar 05, 2021",17.5,26577,2021-03-05
1385,Sold,gaus,0x84c920,"21Ξ ($30,946)","Mar 05, 2021",21,30946,2021-03-05
1385,Sold,0x7132c9,0x568cf5,"5.50Ξ ($1,997)","Sep 28, 2020",5.5,1997,2020-09-28
1385,Sold,Cyborg,0x7132c9,0.35Ξ ($78),"Jul 12, 2017",0.35,78,2017-07-12
1385,Sold,Hemba,Cyborg,0.08Ξ ($25),"Jun 29, 2017",0.08,25,2017-06-29
1387,Sold,0xc1a5a0,0x05e06f,"13.80Ξ ($26,672)","Feb 21, 2021",13.8,26672,2021-02-21
1387,Sold,Cyborg,0xc1a5a0,0.10Ξ ($139),"Jan 13, 2018",0.1,139,2018-01-13
1387,Sold,Hemba,Cyborg,0.08Ξ ($25),"Jun 29, 2017",0.08,25,2017-06-29
1389,Sold,Pranksy,0x6cfe97,"16.99Ξ ($30,875)","Feb 14, 2021",16.99,30875,2021-02-14
1389,Sold,0x577ebc,Pranksy,"12.60Ξ ($20,265)","Feb 04, 2021",12.6,20265,2021-02-04
1390,Sold,16451452,393680,0.75Ξ ($204),"Jun 20, 2019",0.75,204,2019-06-20
1392,Sold,0x89eacd,aviexkak…,"21.99Ξ ($29,645)","Feb 28, 2021",21.99,29645,2021-02-28
1392,Sold,iPhone,0x89eacd,"20Ξ ($26,942)","Feb 28, 2021",20,26942,2021-02-28
1392,Sold,0x196a3d,iPhone,"4.99Ξ ($1,816)","Sep 28, 2020",4.99,1816,2020-09-28
1392,Sold,0x20e386,0x196a3d,1.20Ξ ($465),"Sep 13, 2020",1.2,465,2020-09-13
1394,Sold,0x5b098b,0xa2ef16,"7.80Ξ ($14,174)","Feb 13, 2021",7.8,14174,2021-02-13
1394,Sold,Hemba,0x5b098b,0.25Ξ ($67),"Jul 04, 2017",0.25,67,2017-07-04
1396,Sold,0x5b098b,0x7a341c,0.24Ξ ($66),"Jul 03, 2017",0.24,66,2017-07-03
1396,Sold,Hemba,0x5b098b,0.10Ξ ($29),"Jun 29, 2017",0.1,29,2017-06-29
1397,Sold,heeee.et…,0xec20da,"20Ξ ($30,749)","Mar 04, 2021",20,30749,2021-03-04
1397,Sold,0xb1a875,heeee.et…,"12Ξ ($23,038)","Feb 19, 2021",12,23038,2021-02-19
1397,Sold,0xa1b2c1,0xb1a875,"10Ξ ($18,522)","Feb 17, 2021",10,18522,2021-02-17
1397,Sold,Pranksy,0xa1b2c1,0.30Ξ ($62),"Sep 17, 2019",0.3,62,2019-09-17
1397,Sold,Hemba,0xff8414,0.08Ξ ($25),"Jun 29, 2017",0.08,25,2017-06-29
1398,Sold,EliteCat…,0x20af8c,"28.99Ξ ($45,362)","Feb 23, 2021",28.99,45362,2021-02-23
1398,Sold,ross_VRO…,GoWest23,0.45Ξ ($60),"Jan 04, 2020",0.45,60,2020-01-04
1398,Sold,futurema…,ross_VRO…,0.30Ξ ($42),"Mar 28, 2019",0.3,42,2019-03-28
1398,Sold,0x7f6ca7,futurema…,0.30Ξ ($35),"Jan 21, 2019",0.3,35,2019-01-21
1398,Sold,Hemba,0x7f6ca7,0.11Ξ ($72),"Dec 12, 2017",0.11,72,2017-12-12
1401,Sold,0x5b098b,0x00b278,0.24Ξ ($58),"Jul 07, 2017",0.24,58,2017-07-07
1401,Sold,Hemba,0x5b098b,0.08Ξ ($23),"Jun 29, 2017",0.08,23,2017-06-29
1402,Sold,7636351,10008222,"23.40Ξ ($41,684)","Mar 21, 2021",23.4,41684,2021-03-21
1402,Sold,1700403,7636351,"23Ξ ($43,960)","Mar 14, 2021",23,43960,2021-03-14
1403,Sold,ChrisR,0xfb60bb,0.88Ξ ($209),"Jul 07, 2020",0.88,209,2020-07-07
1403,Sold,0xb6be4d,Pranksy,0.90Ξ ($182),"May 22, 2020",0.9,182,2020-05-22
1404,Sold,15003820,3333383,"10Ξ ($18,340)","Feb 17, 2021",10,18340,2021-02-17
1406,Sold,12743405,11473563,"22.50Ξ ($41,055)","Mar 19, 2021",22.5,41055,2021-03-19
1407,Sold,Pranksy,Pixls,0.48Ξ ($63),"Dec 31, 2019",0.48,63,2019-12-31
1407,Sold,0x00d7c9,Pranksy,0.40Ξ ($109),"Jun 20, 2019",0.4,109,2019-06-20
1408,Sold,15003820,3679873,"25Ξ ($39,119)","Feb 23, 2021",25,39119,2021-02-23
1413,Sold,0xccc003,0x7e455c,"24.50Ξ ($45,946)","Mar 14, 2021",24.5,45946,2021-03-14
1413,Sold,pelvis.e…,0xccc003,"19.75Ξ ($37,653)","Feb 21, 2021",19.75,37653,2021-02-21
1413,Sold,0x577ebc,pelvis.e…,"12Ξ ($22,148)","Feb 17, 2021",12,22148,2021-02-17
1416,Sold,0xa1b2c1,0x9b35db,"5.30Ξ ($2,173)","Oct 24, 2020",5.3,2173,2020-10-24
1416,Sold,ross_VRO…,0xa1b2c1,0.40Ξ ($83),"Sep 17, 2019",0.4,83,2019-09-17
1416,Sold,0xe45df5,ross_VRO…,0.30Ξ ($42),"Mar 28, 2019",0.3,42,2019-03-28
1416,Sold,0x5b098b,0xe45df5,0.30Ξ ($91),"Jun 24, 2017",0.3,91,2017-06-24
1417,Sold,Carlini8,gaus,2.60Ξ ($907),"Sep 25, 2020",2.6,907,2020-09-25
1417,Sold,natealex,Carlini8,1.55Ξ ($583),"Sep 14, 2020",1.55,583,2020-09-14
1417,Sold,Pranksy,natealex,1.25Ξ ($457),"Sep 11, 2020",1.25,457,2020-09-11
1417,Sold,0xe45df5,Pranksy,0.90Ξ ($159),"Jan 18, 2020",0.9,159,2020-01-18
1420,Sold,10674016,16740588,"34.99Ξ ($58,919)","Mar 28, 2021",34.99,58919,2021-03-28
1420,Sold,5734076,10674016,"47.99Ξ ($87,022)","Mar 17, 2021",47.99,87022,2021-03-17
1422,Sold,14215174,10130264,0.25Ξ ($74),"Aug 09, 2017",0.25,74,2017-08-09
1422,Sold,5856208,14215174,0.20Ξ ($45),"Aug 01, 2017",0.2,45,2017-08-01
1424,Sold,9151458,artcolle…,0.48Ξ ($66),"Dec 29, 2018",0.48,66,2018-12-29
1425,Sold,0xc2ac3c,Pixls,0.25Ξ ($35),"Dec 30, 2018",0.25,35,2018-12-30
1425,Sold,0x00d7c9,0xb11d6a,0.30Ξ ($97),"Aug 21, 2017",0.3,97,2017-08-21
1426,Sold,0x58164b,Kenney,0.12Ξ ($84),"Apr 24, 2018",0.12,84,2018-04-24
1430,Sold,Cyborg,0xe80eb0,0.12Ξ ($34),"Sep 24, 2017",0.12,34,2017-09-24
1430,Sold,Hemba,Cyborg,0.08Ξ ($23),"Jun 29, 2017",0.08,23,2017-06-29
1433,Sold,shilpixe…,VonMises,5Ξ ($978),"Apr 26, 2020",5,978,2020-04-26
1435,Sold,alphab.e…,0xfd6bf7,"15.71Ξ ($30,737)","Feb 19, 2021",15.71,30737,2021-02-19
1435,Sold,0xe4f0ac,alphab.e…,"12Ξ ($22,148)","Feb 17, 2021",12,22148,2021-02-17
1436,Sold,0x12c9c4,0x56fc4b,"21Ξ ($35,871)","Feb 22, 2021",21,35871,2021-02-22
1436,Sold,0xc9ab58,0x12c9c4,"4.82Ξ ($8,429)","Feb 08, 2021",4.82,8429,2021-02-08
1436,Sold,0x033ee7,0xc9ab58,"5.17Ξ ($7,407)","Feb 02, 2021",5.17,7407,2021-02-02
1436,Sold,ross_VRO…,0x033ee7,"3Ξ ($1,041)","Sep 24, 2020",3,1041,2020-09-24
1436,Sold,Cyborg,ross_VRO…,0.25Ξ ($21),"Dec 15, 2018",0.25,21,2018-12-15
1437,Sold,Cyborg,na,0.37Ξ ($58),"Jul 16, 2017",0.37,58,2017-07-16
1438,Sold,0xc0f5dd,Zieg,0.50Ξ ($142),"Sep 19, 2017",0.5,142,2017-09-19
1440,Sold,Deeze,0x516358,"17.40Ξ ($36,034)","Apr 05, 2021",17.4,36034,2021-04-05
1440,Sold,Dude_Nak…,pet3rpan,1.95Ξ ($729),"Sep 20, 2020",1.95,729,2020-09-20
1440,Sold,Pranksy,Dude_Nak…,1.78Ξ ($679),"Sep 20, 2020",1.78,679,2020-09-20
1440,Sold,Sylveste…,Pranksy,2Ξ ($746),"Sep 14, 2020",2,746,2020-09-14
1440,Sold,0x48db19,Sylveste…,1.25Ξ ($455),"Sep 11, 2020",1.25,455,2020-09-11
1443,Sold,15003820,15318496,"3.50Ξ ($2,071)","Dec 13, 2020",3.5,2071,2020-12-13
1444,Sold,0xa3cb30,CryptoPa…,"16Ξ ($30,877)","Apr 01, 2021",16,30877,2021-04-01
1446,Sold,5734076,10732151,"42.99Ξ ($76,906)","Mar 16, 2021",42.99,76906,2021-03-16
1447,Sold,ross_VRO…,0xeb9191,2.49Ξ ($499),"May 16, 2020",2.49,499,2020-05-16
1447,Sold,Zieg,ross_VRO…,1.50Ξ ($206),"Mar 15, 2019",1.5,206,2019-03-15
1448,Sold,0x596572,7435585,"30.50Ξ ($56,283)","Mar 30, 2021",30.5,56283,2021-03-30
1448,Sold,0xa3cb30,5858674,"25Ξ ($42,340)","Mar 29, 2021",25,42340,2021-03-29
1454,Sold,0x577ebc,3994914,"25Ξ ($38,429)","Mar 01, 2021",25,38429,2021-03-01
1456,Sold,0x27c79a,0x98c488,0.73Ξ ($147),"May 17, 2020",0.73,147,2020-05-17
1456,Sold,Goop,0x27c79a,0.48Ξ ($69),"Jan 07, 2020",0.48,69,2020-01-07
1456,Sold,0x5d99d4,Goop,0.40Ξ ($54),"Dec 30, 2019",0.4,54,2019-12-30
1456,Sold,0xd8e806,0x5d99d4,0.15Ξ ($46),"Oct 31, 2017",0.15,46,2017-10-31
1456,Sold,0x22160e,0xd8e806,0.37Ξ ($84),"Jul 12, 2017",0.37,84,2017-07-12
1458,Sold,0xecaf04,0xd9d8a5,"30Ξ ($48,020)","Feb 24, 2021",30,48020,2021-02-24
1458,Sold,0x033ee7,0xecaf04,"3.98Ξ ($4,887)","Jan 23, 2021",3.98,4887,2021-01-23
1458,Sold,SenecaEt…,0x033ee7,"2.95Ξ ($1,020)","Sep 24, 2020",2.95,1020,2020-09-24
1458,Sold,0x48db19,SenecaEt…,1Ξ ($244),"Jul 22, 2020",1,244,2020-07-22
1462,Sold,TokenAng…,0x8f6b1e,"50Ξ ($93,893)","Feb 22, 2021",50,93893,2021-02-22
1462,Sold,ddaavvee,TokenAng…,1Ξ ($161),"Jan 14, 2020",1,161,2020-01-14
1463,Sold,0xa3cb30,jmg,"16.50Ξ ($34,106)","Apr 08, 2021",16.5,34106,2021-04-08
1463,Sold,Hemba,0x00bd9f,0.25Ξ ($67),"Jul 04, 2017",0.25,67,2017-07-04
1464,Sold,Hemba,0x00b278,0.25Ξ ($60),"Jul 07, 2017",0.25,60,2017-07-07
1466,Sold,Hemba,0x7a341c,0.25Ξ ($67),"Jul 04, 2017",0.25,67,2017-07-04
1467,Sold,AcceptMy…,0xab4f45,"5.26Ξ ($3,634)","Dec 29, 2020",5.26,3634,2020-12-29
1467,Sold,0x16624b,AcceptMy…,"3.51Ξ ($2,566)","Dec 28, 2020",3.51,2566,2020-12-28
1467,Sold,jmg,0x16624b,0.39Ξ ($45),"Dec 20, 2018",0.39,45,2018-12-20
1467,Sold,Hemba,0x00bd3a,0.25Ξ ($67),"Jul 04, 2017",0.25,67,2017-07-04
1469,Sold,renaissa…,0x577ebc,"9.99Ξ ($18,322)","Feb 17, 2021",9.99,18322,2021-02-17
1469,Sold,JoeLeSho…,renaissa…,"9.35Ξ ($17,018)","Feb 17, 2021",9.35,17018,2021-02-17
1469,Sold,0x0553de,JoeLeSho…,0.89Ξ ($236),"Jul 23, 2020",0.89,236,2020-07-23
1469,Sold,SharkWha…,0x0553de,1.24Ξ ($251),"May 27, 2020",1.24,251,2020-05-27
1469,Sold,0x43b89f,SharkWha…,0.99Ξ ($199),"May 22, 2020",0.99,199,2020-05-22
1469,Sold,0x005700,0x43b89f,0.10Ξ ($35),"Aug 28, 2017",0.1,35,2017-08-28
1473,Sold,MadMax,0x20f9dd,"21.15Ξ ($37,737)","Mar 21, 2021",21.15,37737,2021-03-21
1473,Sold,0xe4f0ac,0x11c9a7,"2.80Ξ ($1,658)","Dec 13, 2020",2.8,1658,2020-12-13
1474,Sold,analemma…,0x74be0a,"32Ξ ($58,617)","Mar 19, 2021",32,58617,2021-03-19
1474,Sold,0x8234be,analemma…,0.10Ξ ($72),"Dec 17, 2017",0.1,72,2017-12-17
1475,Sold,5734076,12206020,"29Ξ ($51,467)","Mar 21, 2021",29,51467,2021-03-21
1477,Sold,shilpixe…,Tschuuul…,0.45Ξ ($117),"May 19, 2019",0.45,117,2019-05-19
1479,Sold,scalynel…,VonMises,2Ξ ($406),"May 26, 2020",2,406,2020-05-26
1479,Sold,shilpixe…,scalynel…,1Ξ ($187),"Apr 25, 2020",1,187,2020-04-25
1480,Sold,0x3d826e,0x954b4c,"14Ξ ($26,783)","Feb 18, 2021",14,26783,2021-02-18
1480,Sold,Cyborg,0x3d826e,0.11Ξ ($79),"Dec 28, 2017",0.11,79,2017-12-28
1482,Sold,2233870,45688,0.31Ξ ($69),"Jul 18, 2017",0.31,69,2017-07-18
1483,Sold,0xcbd482,district…,"5Ξ ($5,868)","Jan 17, 2021",5,5868,2021-01-17
1484,Sold,12743405,5990638,0.04Ξ ($4),"Dec 28, 2019",0.04,4,2019-12-28
1486,Sold,Cyborg,0x7a341c,0.20Ξ ($56),"Jun 30, 2017",0.2,56,2017-06-30
1489,Sold,0xec210c,chaoscon…,"30.99Ξ ($63,388)","Apr 08, 2021",30.99,63388,2021-04-08
1489,Sold,Pranksy,0xeb725f,"39.99Ξ ($70,878)","Feb 22, 2021",39.99,70878,2021-02-22
1489,Sold,0x577ebc,Pranksy,"9.90Ξ ($15,922)","Feb 04, 2021",9.9,15922,2021-02-04
1490,Sold,aviexkak…,0xa58ff1,"25.50Ξ ($46,317)","Mar 19, 2021",25.5,46317,2021-03-19
1490,Sold,0xe4f0ac,0x6f6101,"4.25Ξ ($2,665)","Dec 25, 2020",4.25,2665,2020-12-25
1492,Sold,0xcbd482,7823584,0.20Ξ ($57),"Jul 02, 2017",0.2,57,2017-07-02
1495,Sold,5734076,970122,"25.99Ξ ($46,565)","Mar 17, 2021",25.99,46565,2021-03-17
1502,Sold,0x561786,16211917,"23Ξ ($42,067)","Feb 22, 2021",23,42067,2021-02-22
1502,Sold,0xe4f0ac,5642118,"5Ξ ($5,497)","Jan 12, 2021",5,5497,2021-01-12
1503,Sold,Hemba,0x00b278,0.25Ξ ($67),"Jul 04, 2017",0.25,67,2017-07-04
1505,Sold,Hemba,0x7a341c,0.25Ξ ($67),"Jul 04, 2017",0.25,67,2017-07-04
1506,Sold,0x98cfea,16075380,"19.99Ξ ($38,484)","Feb 18, 2021",19.99,38484,2021-02-18
1507,Sold,0x7eb46d,0xe97afe,0.20Ξ ($277),"Jan 13, 2018",0.2,277,2018-01-13
1507,Sold,Hemba,0x7eb46d,0.13Ξ ($91),"Dec 13, 2017",0.13,91,2017-12-13
1508,Sold,0xc272ed,CPyrc,"30Ξ ($57,554)","Feb 18, 2021",30,57554,2021-02-18
1509,Sold,Goop,Catdog,0.68Ξ ($138),"May 14, 2020",0.68,138,2020-05-14
1509,Sold,0xe45df5,Goop,0.65Ξ ($114),"Jan 19, 2020",0.65,114,2020-01-19
1510,Sold,3van.eth,0x3dee68,"13.49Ξ ($23,241)","Feb 11, 2021",13.49,23241,2021-02-11
1510,Sold,0x33eaae,evkort,"10Ξ ($13,472)","Jan 24, 2021",10,13472,2021-01-24
1512,Sold,0xd8e806,0x9113d4,0.18Ξ ($53),"Aug 13, 2017",0.18,53,2017-08-13
1512,Sold,Hemba,0xd8e806,0.42Ξ ($86),"Jul 13, 2017",0.42,86,2017-07-13
1513,Sold,0xfcdca1,8020267,"43Ξ ($88,466)","Apr 08, 2021",43,88466,2021-04-08
1513,Sold,0xae8658,16571553,"51.50Ξ ($96,747)","Mar 15, 2021",51.5,96747,2021-03-15
1513,Sold,0x577ebc,11437656,"48Ξ ($85,171)","Mar 12, 2021",48,85171,2021-03-12
1516,Sold,15003820,2675069,"9.80Ξ ($17,846)","Feb 16, 2021",9.8,17846,2021-02-16
1518,Sold,15003820,13590885,"5.25Ξ ($3,412)","Dec 27, 2020",5.25,3412,2020-12-27
1519,Sold,48442,sov,0.89Ξ ($150),"Jul 15, 2017",0.89,150,2017-07-15
1519,Sold,14215174,0x00bd3a,0.55Ξ ($113),"Jul 13, 2017",0.55,113,2017-07-13
1519,Sold,5856208,0xd8e806,0.25Ξ ($51),"Jul 13, 2017",0.25,51,2017-07-13
1520,Sold,16058782,9748951,0.25Ξ ($196),"Dec 18, 2017",0.25,196,2017-12-18
1520,Sold,5856208,10528156,0.15Ξ ($34),"Jul 12, 2017",0.15,34,2017-07-12
1521,Sold,10734384,taneleer…,"6.60Ξ ($8,693)","Jan 24, 2021",6.6,8693,2021-01-24
1522,Sold,0x033ee7,0x832179,"6.95Ξ ($9,098)","Jan 31, 2021",6.95,9098,2021-01-31
1522,Sold,GoWest23,0x033ee7,"3.45Ξ ($1,193)","Sep 24, 2020",3.45,1193,2020-09-24
1522,Sold,0x0735b3,GoWest23,0.50Ξ ($87),"May 06, 2019",0.5,87,2019-05-06
1522,Sold,Hemba,0x0735b3,0.12Ξ ($82),"Dec 12, 2017",0.12,82,2017-12-12
1524,Sold,0x881ef2,13590885,"4.40Ξ ($2,828)","Dec 26, 2020",4.4,2828,2020-12-26
1524,Sold,0x104d61,8920818,"4Ξ ($2,474)","Dec 23, 2020",4,2474,2020-12-23
1524,Sold,0xe4f0ac,1068385,"3.24Ξ ($1,793)","Nov 29, 2020",3.24,1793,2020-11-29
1527,Sold,5734076,6964198,"23Ξ ($41,240)","Mar 22, 2021",23,41240,2021-03-22
1529,Sold,H6A5-0x,0x0601d0,"12.99Ξ ($4,801)","Oct 18, 2020",12.99,4801,2020-10-18
1530,Sold,Hemba,0x00b278,0.37Ξ ($88),"Jul 09, 2017",0.37,88,2017-07-09
1532,Sold,15003820,9427076,"5Ξ ($5,619)","Jan 13, 2021",5,5619,2021-01-13
1533,Sold,11815273,0x989680,"6.30Ξ ($11,433)","Feb 13, 2021",6.3,11433,2021-02-13
1533,Sold,15003820,0xbf6ccf,"3.75Ξ ($2,348)","Dec 22, 2020",3.75,2348,2020-12-22
1535,Sold,magicdhz…,0x267e95,"22.99Ξ ($44,201)","Mar 13, 2021",22.99,44201,2021-03-13
1535,Sold,0x577ebc,magicdhz…,"22.99Ξ ($41,984)","Mar 11, 2021",22.99,41984,2021-03-11
1537,Sold,MrTpunks…,ddaavvee,"10Ξ ($3,239)","Sep 24, 2020",10,3239,2020-09-24
1537,Sold,0x0553de,MrTpunks,2Ξ ($287),"Jan 12, 2020",2,287,2020-01-12
1537,Sold,Pixls,0x0553de,0.45Ξ ($56),"Jan 19, 2019",0.45,56,2019-01-19
1537,Sold,0x0af8cc,Pixls,0.19Ξ ($26),"Dec 29, 2018",0.19,26,2018-12-29
1537,Sold,0x00d7c9,0x0af8cc,0.05Ξ ($24),"Jun 13, 2018",0.05,24,2018-06-13
1538,Sold,Hemba,0xc352b5,0.40Ξ ($78),"Jul 19, 2017",0.4,78,2017-07-19
1539,Sold,0x4960c4…,dafky200…,0.15Ξ ($34),"Oct 02, 2018",0.15,34,2018-10-02
1539,Sold,0xd8e806,0x4960c4…,0.21Ξ ($65),"Aug 12, 2017",0.21,65,2017-08-12
1539,Sold,Cyborg,0xd8e806,0.35Ξ ($67),"Jul 11, 2017",0.35,67,2017-07-11
1540,Sold,2233870,45688,0.31Ξ ($69),"Jul 18, 2017",0.31,69,2017-07-18
1548,Sold,Theodora,0x7decf7,"24.62Ξ ($33,637)","Feb 28, 2021",24.62,33637,2021-02-28
1548,Sold,0x48db19,Theodora,1.25Ξ ($445),"Aug 01, 2020",1.25,445,2020-08-01
1552,Sold,0xabf107,13696740,"22.50Ξ ($36,173)","Mar 25, 2021",22.5,36173,2021-03-25
1552,Sold,0x577ebc,11268359,"23.99Ξ ($42,491)","Mar 17, 2021",23.99,42491,2021-03-17
1555,Sold,Pixls,snowfro,0.22Ξ ($20),"Dec 06, 2018",0.22,20,2018-12-06
1555,Sold,0x470e9b,Pixls,0.14Ξ ($29),"Oct 18, 2018",0.14,29,2018-10-18
1556,Sold,0x1a4d11,jmg,"36.75Ξ ($68,733)","Mar 14, 2021",36.75,68733,2021-03-14
1556,Sold,0x577ebc,0x1a4d11,"36Ξ ($65,030)","Mar 11, 2021",36,65030,2021-03-11
1557,Sold,2233870,45688,0.31Ξ ($69),"Jul 18, 2017",0.31,69,2017-07-18
1558,Sold,0x1da533,0x5ea968,"25Ξ ($44,396)","Feb 17, 2021",25,44396,2021-02-17
1558,Sold,parttty6,DANNY,"11Ξ ($3,698)","Oct 08, 2020",11,3698,2020-10-08
1558,Sold,KittyGr_…,parttty6,"6Ξ ($2,048)","Oct 07, 2020",6,2048,2020-10-07
1558,Sold,Hemba,KittyGr_…,0.08Ξ ($45),"Jun 08, 2018",0.08,45,2018-06-08
1560,Sold,Hemba,0x7760e0,0.36Ξ ($96),"Jul 04, 2017",0.36,96,2017-07-04
1561,Sold,0xddfdcb,9555364,"22.99Ξ ($47,767)","Apr 08, 2021",22.99,47767,2021-04-08
1561,Sold,0x74be0a,14548427,"20.99Ξ ($43,387)","Apr 08, 2021",20.99,43387,2021-04-08
1561,Sold,0x70ca0f,7650826,"15.99Ξ ($33,524)","Apr 02, 2021",15.99,33524,2021-04-02
1561,Sold,0x577ebc,7391759,"27.99Ξ ($50,029)","Mar 15, 2021",27.99,50029,2021-03-15
1564,Sold,0x87dd2a,11421942,"25.90Ξ ($46,786)","Mar 31, 2021",25.9,46786,2021-03-31
1564,Sold,0x577ebc,8903978,"29.99Ξ ($53,709)","Mar 13, 2021",29.99,53709,2021-03-13
1565,Sold,0x27c79a,0x98c488,0.73Ξ ($147),"May 17, 2020",0.73,147,2020-05-17
1565,Sold,Goop,0x27c79a,0.48Ξ ($69),"Jan 07, 2020",0.48,69,2020-01-07
1565,Sold,Pranksy,Goop,0.40Ξ ($54),"Dec 30, 2019",0.4,54,2019-12-30
1565,Sold,0x00d7c9,Pranksy,0.40Ξ ($109),"Jun 20, 2019",0.4,109,2019-06-20
1565,Sold,Hemba,0x00d7c9,0.36Ξ ($88),"Jul 08, 2017",0.36,88,2017-07-08
1566,Sold,Pranksy,cryptosa…,"26Ξ ($49,147)","Mar 13, 2021",26,49147,2021-03-13
1566,Sold,0x577ebc,Pranksy,"13Ξ ($22,793)","Feb 09, 2021",13,22793,2021-02-09
1575,Sold,dan_,moonphas…,"6Ξ ($2,181)","Sep 28, 2020",6,2181,2020-09-28
1575,Sold,Hemba,jomessin,0.14Ξ ($145),"Jan 19, 2018",0.14,145,2018-01-19
1580,Sold,8533182,Kenney,0.10Ξ ($105),"Jan 16, 2018",0.1,105,2018-01-16
1581,Sold,1742511,10011784,0.76Ξ ($153),"May 17, 2020",0.76,153,2020-05-17
1581,Sold,2233870,14966261,0.38Ξ ($78),"Jul 13, 2017",0.38,78,2017-07-13
1584,Sold,55241,warrbos.…,0.05Ξ ($24),"Jun 15, 2018",0.05,24,2018-06-15
1585,Sold,0x84c920,wookie.e…,"15Ξ ($27,364)","Mar 09, 2021",15,27364,2021-03-09
1585,Sold,0x2a3bcc,0x84c920,"18Ξ ($29,902)","Mar 07, 2021",18,29902,2021-03-07
1585,Sold,0xfed697,0x2a3bcc,"18Ξ ($27,841)","Mar 06, 2021",18,27841,2021-03-06
1585,Sold,0x470e9b,0xfed697,0.12Ξ ($28),"Sep 27, 2018",0.12,28,2018-09-27
1586,Sold,0x4bc412,0xc991fd,"26Ξ ($47,635)","Mar 29, 2021",26,47635,2021-03-29
1586,Sold,0x5a6dfb,0x4bc412,"23.99Ξ ($35,438)","Feb 26, 2021",23.99,35438,2021-02-26
1586,Sold,0x641cf1,0x5a6dfb,"4.80Ξ ($2,937)","Dec 25, 2020",4.8,2937,2020-12-25
1586,Sold,Slider92,0x641cf1,"3.40Ξ ($2,121)","Dec 22, 2020",3.4,2121,2020-12-22
1586,Sold,0x8a648e,Slider92,"2.60Ξ ($1,507)","Nov 30, 2020",2.6,1507,2020-11-30
1586,Sold,0x8234be,0x8a648e,0.09Ξ ($112),"Jan 10, 2018",0.09,112,2018-01-10
1587,Sold,5734076,5019282,"24Ξ ($45,539)","Feb 18, 2021",24,45539,2021-02-18
1588,Sold,14548427,13162917,"25.99Ξ ($46,881)","Mar 21, 2021",25.99,46881,2021-03-21
1588,Sold,5734076,14548427,"26.99Ξ ($48,804)","Mar 12, 2021",26.99,48804,2021-03-12
1589,Sold,0x3fcac5,0x584cdf,"24Ξ ($49,533)","Apr 08, 2021",24,49533,2021-04-08
1589,Sold,0xec959f,0x3fcac5,"14.90Ξ ($29,664)","Feb 20, 2021",14.9,29664,2021-02-20
1589,Sold,0x13816f,0xec959f,"7.25Ξ ($13,091)","Feb 13, 2021",7.25,13091,2021-02-13
1589,Sold,NeonNFT,0x13816f,"4.75Ξ ($1,630)","Oct 02, 2020",4.75,1630,2020-10-02
1589,Sold,Hemba,KittyGr_…,0.08Ξ ($45),"Jun 08, 2018",0.08,45,2018-06-08
1590,Sold,Shrugs,district…,2Ξ ($733),"Sep 11, 2020",2,733,2020-09-11
1590,Sold,0x00d7c9,Shrugs,0.10Ξ ($136),"Jan 14, 2018",0.1,136,2018-01-14
1592,Sold,1913727,8644505,"19.90Ξ ($33,884)","Mar 27, 2021",19.9,33884,2021-03-27
1592,Sold,5966219,11626205,"5.64Ξ ($9,128)","Feb 04, 2021",5.64,9128,2021-02-04
1592,Sold,5331586,5966219,0.08Ξ ($23),"Jun 29, 2017",0.08,23,2017-06-29
1594,Sold,4774681,10936810,"6Ξ ($9,598)","Feb 07, 2021",6,9598,2021-02-07
1605,Sold,sighduck…,0x76334d,"60Ξ ($122,870)","Apr 08, 2021",60,122870,2021-04-08
1605,Sold,wookie.e…,sighduck…,"63Ξ ($116,947)","Mar 14, 2021",63,116947,2021-03-14
1605,Sold,zonted,0x4fa27c,"21.50Ξ ($13,163)","Dec 24, 2020",21.5,13163,2020-12-24
1605,Sold,VonMises,zonted,"6.49Ξ ($2,456)","Sep 15, 2020",6.49,2456,2020-09-15
1605,Sold,Pranksy,VonMises,1.20Ξ ($228),"May 12, 2020",1.2,228,2020-05-12
1605,Sold,0x00d7c9,Pranksy,0.40Ξ ($109),"Jun 20, 2019",0.4,109,2019-06-20
1610,Sold,0x0a4eaf…,Bendicio…,0.29Ξ ($90),"Aug 11, 2017",0.29,90,2017-08-11
1610,Sold,0x515a82,0x5b098b,0.06Ξ ($18),"Jun 29, 2017",0.06,18,2017-06-29
1613,Sold,5734076,seel.eth,"8.10Ξ ($14,768)","Feb 15, 2021",8.1,14768,2021-02-15
1614,Sold,2985549,2900112,"25Ξ ($44,447)","Mar 21, 2021",25,44447,2021-03-21
1614,Sold,4774681,2985549,"22.90Ξ ($39,720)","Feb 22, 2021",22.9,39720,2021-02-22
1615,Sold,Hemba,0x00b278,0.36Ξ ($96),"Jul 04, 2017",0.36,96,2017-07-04
1617,Sold,ChrisR,0xfb60bb,0.95Ξ ($320),"Jul 30, 2020",0.95,320,2020-07-30
1617,Sold,0xb6be4d,Pranksy,0.90Ξ ($182),"May 22, 2020",0.9,182,2020-05-22
1618,Sold,0xe03559,11200709,"25Ξ ($39,263)","Mar 02, 2021",25,39263,2021-03-02
1621,Sold,0x577ebc,14844345,"26.49Ξ ($50,406)","Mar 14, 2021",26.49,50406,2021-03-14
1623,Sold,6689278,10913381,"53Ξ ($93,896)","Mar 18, 2021",53,93896,2021-03-18
1624,Sold,0x01d897,Kenney,0.09Ξ ($87),"Feb 03, 2018",0.09,87,2018-02-03
1624,Sold,Hemba,0x01d897,0.13Ξ ($85),"Dec 12, 2017",0.13,85,2017-12-12
1625,Sold,0x052564,0x5cd16d,"25Ξ ($44,579)","Feb 22, 2021",25,44579,2021-02-22
1625,Sold,Hemba,0xd8e806,0.38Ξ ($73),"Jul 11, 2017",0.38,73,2017-07-11
1626,Sold,11446499,1682476,"47.99Ξ ($98,275)","Apr 08, 2021",47.99,98275,2021-04-08
1626,Sold,755965,11446499,"41.25Ξ ($76,215)","Mar 20, 2021",41.25,76215,2021-03-20
1628,Sold,0xa3cb30,wookie.e…,"15Ξ ($27,653)","Mar 30, 2021",15,27653,2021-03-30
1630,Sold,0xc352b5,Deeze,"18Ξ ($23,998)","Feb 01, 2021",18,23998,2021-02-01
1630,Sold,0x2bcbbd,0xc352b5,0.50Ξ ($43),"Dec 13, 2018",0.5,43,2018-12-13
1631,Sold,0x00d7c9,Shrugs,0.10Ξ ($136),"Jan 14, 2018",0.1,136,2018-01-14
1633,Sold,Hemba,0x00b278,0.34Ξ ($82),"Jul 07, 2017",0.34,82,2017-07-07
1636,Sold,Dude_Nak…,0x7a3960,"10Ξ ($3,727)","Oct 11, 2020",10,3727,2020-10-11
1636,Sold,0xa3cb30,Dude_Nak…,"7.10Ξ ($2,506)","Oct 06, 2020",7.1,2506,2020-10-06
1638,Sold,Artnome,0x55afb7,0.16Ξ ($39),"Sep 22, 2018",0.16,39,2018-09-22
1638,Sold,Hemba,Artnome,0.10Ξ ($74),"Dec 29, 2017",0.1,74,2017-12-29
1640,Sold,0x596572,0x989680,"10.99Ξ ($19,971)","Feb 13, 2021",10.99,19971,2021-02-13
1640,Sold,0x0dc533,0x596572,"6.99Ξ ($12,208)","Feb 09, 2021",6.99,12208,2021-02-09
1640,Sold,3van.eth,0x0dc533,"5.49Ξ ($6,586)","Jan 08, 2021",5.49,6586,2021-01-08
1640,Sold,evkort,0x34cdf7,0.05Ξ ($18),"Oct 08, 2020",0.05,18,2020-10-08
1640,Sold,j1mmy,evkort,"6.75Ξ ($2,369)","Oct 08, 2020",6.75,2369,2020-10-08
1640,Sold,Dude_Nak…,j1mmy,0.95Ξ ($127),"Jan 04, 2020",0.95,127,2020-01-04
1640,Sold,0x00d7c9,Dude_Nak…,0.35Ξ ($61),"May 06, 2019",0.35,61,2019-05-06
1641,Sold,Hemba,0x727ca3,0.34Ξ ($81),"Jul 09, 2017",0.34,81,2017-07-09
1642,Sold,0x0a4eaf…,0x25dd15,1.97Ξ ($757),"Sep 20, 2020",1.97,757,2020-09-20
1642,Sold,Cyborg,0x0a4eaf…,0.28Ξ ($57),"Jul 29, 2017",0.28,57,2017-07-29
1643,Sold,Hemba,0x58f187,0.41Ξ ($127),"Aug 11, 2017",0.41,127,2017-08-11
1646,Sold,Cyborg,Alegria,0.20Ξ ($39),"Oct 29, 2018",0.2,39,2018-10-29
1647,Sold,Hemba,0x8ca89c,0.12Ξ ($87),"Dec 14, 2017",0.12,87,2017-12-14
1648,Sold,0x024bcb,0x56e52b,"23Ξ ($41,295)","Mar 15, 2021",23,41295,2021-03-15
1648,Sold,0xc36817,0x024bcb,"17.75Ξ ($27,122)","Mar 06, 2021",17.75,27122,2021-03-06
1648,Sold,0x14ae81,0xc36817,"21.24Ξ ($32,422)","Mar 01, 2021",21.24,32422,2021-03-01
1648,Sold,0xcee40b,0x14ae81,"15Ξ ($30,024)","Feb 20, 2021",15,30024,2021-02-20
1648,Sold,Pranksy,snowfro,0.45Ξ ($69),"Nov 27, 2019",0.45,69,2019-11-27
1648,Sold,0x00d7c9,Pranksy,0.40Ξ ($109),"Jun 20, 2019",0.4,109,2019-06-20
1648,Sold,Hemba,0x00d7c9,0.41Ξ ($101),"Jul 08, 2017",0.41,101,2017-07-08
1649,Sold,monopoly…,0xf4b4a5,"30Ξ ($54,393)","Mar 12, 2021",30,54393,2021-03-12
1649,Sold,0x701f37,monopoly…,"24Ξ ($43,364)","Mar 10, 2021",24,43364,2021-03-10
1649,Sold,0xa3cb30,0x701f37,"12.49Ξ ($22,537)","Feb 14, 2021",12.49,22537,2021-02-14
1650,Sold,0x677b43,7478,0.89Ξ ($149),"Jan 21, 2020",0.89,149,2020-01-21
1650,Sold,Hemba,0x677b43,0.41Ξ ($78),"Jul 11, 2017",0.41,78,2017-07-11
1651,Sold,14548427,150475,"125Ξ ($222,356)","Mar 11, 2021",125,222356,2021-03-11
1651,Sold,972542,14548427,"78Ξ ($136,850)","Feb 16, 2021",78,136850,2021-02-16
1654,Sold,0x99b884,16525921,"30Ξ ($58,615)","Feb 21, 2021",30,58615,2021-02-21
1660,Sold,2233870,45688,0.31Ξ ($69),"Jul 18, 2017",0.31,69,2017-07-18
1665,Sold,0x4dcaf3,Kataster…,0.61Ξ ($125),"May 05, 2020",0.61,125,2020-05-05
1665,Sold,Hemba,0x4dcaf3,0.48Ξ ($127),"Jul 06, 2017",0.48,127,2017-07-06
1667,Sold,0x161f7c,pelvis.e…,"12.10Ξ ($21,188)","Feb 16, 2021",12.1,21188,2021-02-16
1667,Sold,0x13816f,0x161f7c,"7.80Ξ ($14,194)","Feb 10, 2021",7.8,14194,2021-02-10
1667,Sold,0x3a4930,0x13816f,"4.49Ξ ($1,673)","Oct 11, 2020",4.49,1673,2020-10-11
1667,Sold,Michel_M…,evkort,"4.85Ξ ($1,707)","Oct 05, 2020",4.85,1707,2020-10-05
1668,Sold,Hemba,0xf3d56b,0.08Ξ ($43),"May 31, 2018",0.08,43,2018-05-31
1672,Sold,2233870,45688,0.31Ξ ($69),"Jul 18, 2017",0.31,69,2017-07-18
1677,Sold,renaissa…,0x83e0e1,"42Ξ ($69,588)","Feb 24, 2021",42,69588,2021-02-24
1677,Sold,VonMises,renaissa…,"35Ξ ($56,954)","Feb 23, 2021",35,56954,2021-02-23
1677,Sold,0xcbdde8,VonMises,"7.50Ξ ($3,058)","Oct 25, 2020",7.5,3058,2020-10-25
1677,Sold,Hemba,KittyGr_…,0.08Ξ ($45),"Jun 08, 2018",0.08,45,2018-06-08
1679,Sold,Hemba,sov,0.63Ξ ($141),"Aug 03, 2017",0.63,141,2017-08-03
1682,Sold,6689278,957165,"85Ξ ($176,157)","Apr 09, 2021",85,176157,2021-04-09
1683,Sold,Davicio,0x8f5526,"24.98Ξ ($45,030)","Feb 22, 2021",24.98,45030,2021-02-22
1683,Sold,0xe1ef5d,Davicio,"21.32Ξ ($41,170)","Feb 22, 2021",21.32,41170,2021-02-22
1683,Sold,ross_VRO…,0xe1ef5d,1.47Ξ ($541),"Sep 10, 2020",1.47,541,2020-09-10
1683,Sold,Pranksy,ross_VRO…,0.55Ξ ($79),"Jan 07, 2020",0.55,79,2020-01-07
1683,Sold,0x00d7c9,Pranksy,0.40Ξ ($109),"Jun 20, 2019",0.4,109,2019-06-20
1684,Sold,sov,VonMises,"40Ξ ($13,708)","Sep 22, 2020",40,13708,2020-09-22
1684,Sold,0xd8e806,sov,1.49Ξ ($359),"Jul 07, 2017",1.49,359,2017-07-07
1686,Sold,Cyborg,0x7a341c,0.20Ξ ($52),"Jul 01, 2017",0.2,52,2017-07-01
1690,Sold,0x13816f,0x8aa04e,"9.50Ξ ($16,649)","Feb 17, 2021",9.5,16649,2021-02-17
1690,Sold,CPyrc,0x13816f,"5.30Ξ ($1,844)","Oct 04, 2020",5.3,1844,2020-10-04
1690,Sold,Hemba,KittyGr_…,0.08Ξ ($45),"Jun 08, 2018",0.08,45,2018-06-08
1691,Sold,8674781,6112565,"23Ξ ($47,735)","Apr 09, 2021",23,47735,2021-04-09
1691,Sold,5734076,8674781,"24.99Ξ ($43,732)","Mar 17, 2021",24.99,43732,2021-03-17
1692,Sold,2233870,45688,0.31Ξ ($69),"Jul 18, 2017",0.31,69,2017-07-18
1693,Sold,0x577ebc,11234466,"20.99Ξ ($38,332)","Mar 11, 2021",20.99,38332,2021-03-11
1694,Sold,0x577ebc,10073468,"39.99Ξ ($72,041)","Mar 11, 2021",39.99,72041,2021-03-11
1695,Sold,2233870,45688,0.31Ξ ($69),"Jul 18, 2017",0.31,69,2017-07-18
1697,Sold,Pranksy,0x052564,"17.99Ξ ($34,718)","Apr 01, 2021",17.99,34718,2021-04-01
1697,Sold,0x577ebc,Pranksy,"7.20Ξ ($11,580)","Feb 04, 2021",7.2,11580,2021-02-04
1700,Sold,0x58164b,Kenney,0.08Ξ ($60),"May 07, 2018",0.08,60,2018-05-07
1702,Sold,0xc04f55,0x54d7f9,"19.95Ξ ($39,026)","Feb 19, 2021",19.95,39026,2021-02-19
1702,Sold,0xf5099e,Dude_Nak…,0.30Ξ ($28),"Dec 07, 2018",0.3,28,2018-12-07
1702,Sold,0x0b30fd,0xa0a59c,0.15Ξ ($44),"Jun 29, 2017",0.15,44,2017-06-29
1703,Sold,0xc05488,0xf1e1c7,"43Ξ ($72,575)","Mar 27, 2021",43,72575,2021-03-27
1703,Sold,Michel_M…,0xc05488,"39Ξ ($58,922)","Mar 03, 2021",39,58922,2021-03-03
1703,Sold,2pac,Michel_M…,"5Ξ ($2,291)","Nov 15, 2020",5,2291,2020-11-15
1703,Sold,0xa3cb30,0x257e2b,"7.50Ξ ($2,724)","Oct 09, 2020",7.5,2724,2020-10-09
1704,Sold,0x62bdc6,0x131b2b,"21.97Ξ ($47,298)","Apr 11, 2021",21.97,47298,2021-04-11
1704,Sold,Ranger,0x93db36,2.50Ξ ($961),"Sep 20, 2020",2.5,961,2020-09-20
1704,Sold,Pranksy,Ranger,0.50Ξ ($91),"Sep 13, 2019",0.5,91,2019-09-13
1704,Sold,0x00d7c9,Pranksy,0.40Ξ ($109),"Jun 20, 2019",0.4,109,2019-06-20
1710,Sold,sov,0xeb9191,"10Ξ ($2,062)","May 23, 2020",10,2062,2020-05-23
1710,Sold,Hemba,sov,0.30Ξ ($139),"Nov 25, 2017",0.3,139,2017-11-25
1712,Sold,0x00d7c9,TokenAng…,0.50Ξ ($136),"Jun 20, 2019",0.5,136,2019-06-20
1716,Sold,10734384,12502685,"16Ξ ($32,978)","Apr 04, 2021",16,32978,2021-04-04
1719,Sold,53919,15693900,"28.75Ξ ($51,960)","Mar 12, 2021",28.75,51960,2021-03-12
1719,Sold,52816,15566381,"15Ξ ($28,665)","Feb 19, 2021",15,28665,2021-02-19
1720,Sold,Hemba,0x592a51,0.20Ξ ($84),"Dec 06, 2017",0.2,84,2017-12-06
1721,Sold,0x577ebc,Deeze,"45Ξ ($79,737)","Mar 16, 2021",45,79737,2021-03-16
1722,Sold,0x565496,12502685,"32Ξ ($66,145)","Apr 08, 2021",32,66145,2021-04-08
1722,Sold,0xa3cb30,5657750,"25Ξ ($44,292)","Mar 22, 2021",25,44292,2021-03-22
1723,Sold,TokyoBas…,0xdce636,0.12Ξ ($97),"Dec 19, 2017",0.12,97,2017-12-19
1732,Sold,15808747,7435267,0.18Ξ ($45),"Jun 26, 2017",0.18,45,2017-06-26
1737,Sold,0xabf107,jmg,"27.99Ξ ($52,338)","Mar 15, 2021",27.99,52338,2021-03-15
1737,Sold,0x6594f9,0xabf107,"26Ξ ($46,226)","Mar 12, 2021",26,46226,2021-03-12
1737,Sold,0x9059b7,0x2c74b9,"26.25Ξ ($40,973)","Feb 24, 2021",26.25,40973,2021-02-24
1737,Sold,0x83fe78,0x9059b7,"29Ξ ($44,399)","Feb 23, 2021",29,44399,2021-02-23
1737,Sold,0x00d7c9,CyrusOld,0.12Ξ ($68),"May 27, 2018",0.12,68,2018-05-27
1737,Sold,Hemba,0x00d7c9,0.41Ξ ($101),"Jul 08, 2017",0.41,101,2017-07-08
1739,Sold,0xb4bb41,16291784,"28.99Ξ ($60,630)","Apr 09, 2021",28.99,60630,2021-04-09
1739,Sold,0x0873fc,11844417,"30.05Ξ ($56,516)","Feb 22, 2021",30.05,56516,2021-02-22
1743,Sold,0xbd9e32,0xcf6165,"4.90Ξ ($3,756)","Jan 02, 2021",4.9,3756,2021-01-02
1743,Sold,0x1d45f1,0xbd9e32,2.20Ξ ($752),"Sep 22, 2020",2.2,752,2020-09-22
1743,Sold,0x1a96af,0x1d45f1,1.99Ξ ($750),"Sep 14, 2020",1.99,750,2020-09-14
1744,Sold,Pranksy,0xcfd9cc,"34.99Ξ ($56,076)","Mar 03, 2021",34.99,56076,2021-03-03
1744,Sold,0x577ebc,Pranksy,"12Ξ ($21,040)","Feb 09, 2021",12,21040,2021-02-09
1745,Sold,0x6611fe,3744188,"41Ξ ($72,002)","Mar 13, 2021",41,72002,2021-03-13
1749,Sold,0x44bf2e,renaissa…,"21Ξ ($38,640)","Mar 31, 2021",21,38640,2021-03-31
1749,Sold,0xa3cb30,0x44bf2e,"19.99Ξ ($36,853)","Mar 30, 2021",19.99,36853,2021-03-30
1750,Sold,jmg,MadMax,"38.99Ξ ($76,179)","Feb 21, 2021",38.99,76179,2021-02-21
1750,Sold,0xa3cb30,jmg,"9.50Ξ ($3,563)","Oct 10, 2020",9.5,3563,2020-10-10
1752,Sold,5734076,644104,"24Ξ ($43,375)","Mar 12, 2021",24,43375,2021-03-12
1753,Sold,0x577ebc,cryptoni…,"25.99Ξ ($45,325)","Mar 19, 2021",25.99,45325,2021-03-19
1756,Sold,10074244,8610739,"9.50Ξ ($17,484)","Feb 14, 2021",9.5,17484,2021-02-14
1757,Sold,Dude_Nak…,helpchai…,0.44Ξ ($65),"Dec 05, 2019",0.44,65,2019-12-05
1757,Sold,Hemba,Dude_Nak…,0.13Ξ ($70),"Mar 22, 2018",0.13,70,2018-03-22
1760,Sold,Pranksy,0xaf5bdc,1.49Ξ ($301),"May 25, 2020",1.49,301,2020-05-25
1760,Sold,0x00d7c9,Pranksy,0.40Ξ ($109),"Jun 20, 2019",0.4,109,2019-06-20
1762,Sold,Hemba,KittyGr_…,0.08Ξ ($45),"Jun 08, 2018",0.08,45,2018-06-08
1763,Sold,Hemba,0x9ca9b5,0.13Ξ ($103),"Dec 21, 2017",0.13,103,2017-12-21
1764,Sold,Slider92,0xb9afc8,"5.45Ξ ($6,908)","Jan 27, 2021",5.45,6908,2021-01-27
1764,Sold,0xde0193,Slider92,"4.45Ξ ($4,623)","Jan 04, 2021",4.45,4623,2021-01-04
1767,Sold,0xaae8c5,0x50664e,"18.49Ξ ($33,519)","Mar 11, 2021",18.49,33519,2021-03-11
1767,Sold,NeonNFT,0x568cf5,"4.75Ξ ($1,636)","Oct 02, 2020",4.75,1636,2020-10-02
1767,Sold,Hemba,KittyGr_…,0.08Ξ ($45),"Jun 08, 2018",0.08,45,2018-06-08
1769,Sold,0x13816f,0x8c9fcc,"8Ξ ($14,549)","Feb 14, 2021",8,14549,2021-02-14
1769,Sold,CPyrc,0x13816f,"5.59Ξ ($1,945)","Oct 04, 2020",5.59,1945,2020-10-04
1769,Sold,Hemba,KittyGr_…,0.08Ξ ($45),"Jun 08, 2018",0.08,45,2018-06-08
1770,Sold,0x13816f,0x2b9324,"24.88Ξ ($39,119)","Feb 24, 2021",24.88,39119,2021-02-24
1770,Sold,CPyrc,0x13816f,"4.70Ξ ($1,827)","Oct 12, 2020",4.7,1827,2020-10-12
1770,Sold,Hemba,KittyGr_…,0.08Ξ ($45),"Jun 08, 2018",0.08,45,2018-06-08
1771,Sold,0x74fed6,0xf72cf7,"36Ξ ($60,534)","Mar 22, 2021",36,60534,2021-03-22
1771,Sold,0xc272ed,0xeb725f,"33Ξ ($58,845)","Feb 22, 2021",33,58845,2021-02-22
1773,Sold,0x3e17fa,0x56be13,"4.30Ξ ($2,036)","Nov 18, 2020",4.3,2036,2020-11-18
1773,Sold,0x584c7a,0x3e17fa,"4.30Ξ ($1,528)","Sep 26, 2020",4.3,1528,2020-09-26
1773,Sold,OnlyToas…,0x584c7a,2.25Ξ ($831),"Sep 20, 2020",2.25,831,2020-09-20
1773,Sold,Ranger,OnlyToas…,2Ξ ($732),"Sep 16, 2020",2,732,2020-09-16
1773,Sold,0x00d7c9,Pranksy,0.40Ξ ($109),"Jun 20, 2019",0.4,109,2019-06-20
1774,Sold,0x8234be,2652237,0.09Ξ ($112),"Jan 10, 2018",0.09,112,2018-01-10
1775,Sold,0xc5f70b,1918449,"122Ξ ($221,417)","Mar 18, 2021",122,221417,2021-03-18
1775,Sold,0x596572,12973835,"74Ξ ($119,415)","Mar 03, 2021",74,119415,2021-03-03
1775,Sold,0xfba169,5858674,"50Ξ ($68,313)","Feb 28, 2021",50,68313,2021-02-28
1777,Sold,0xdcf227,TokenAng…,"34.50Ξ ($62,877)","Mar 18, 2021",34.5,62877,2021-03-18
1777,Sold,0x577ebc,0xdcf227,"14.50Ξ ($25,805)","Feb 16, 2021",14.5,25805,2021-02-16
1778,Sold,0x84c920,0xae21e3,"16Ξ ($25,367)","Mar 06, 2021",16,25367,2021-03-06
1778,Sold,gaus,0x84c920,"21Ξ ($30,946)","Mar 05, 2021",21,30946,2021-03-05
1778,Sold,NeonNFT,0x568cf5,"4.75Ξ ($1,636)","Oct 02, 2020",4.75,1636,2020-10-02
1778,Sold,Hemba,KittyGr_…,0.08Ξ ($45),"Jun 08, 2018",0.08,45,2018-06-08
1780,Sold,0x16624b,14634082,"4.50Ξ ($3,323)","Dec 28, 2020",4.5,3323,2020-12-28
1780,Sold,0xfb077c,1466955,0.50Ξ ($55),"Dec 21, 2018",0.5,55,2018-12-21
1781,Sold,0x167204,KennyB,"2.80Ξ ($1,551)","Dec 12, 2020",2.8,1551,2020-12-12
1781,Sold,0x82f3d9,0x167204,1Ξ ($549),"Dec 11, 2020",1,549,2020-12-11
1781,Sold,Hemba,0x82f3d9,0.14Ξ ($190),"Jan 14, 2018",0.14,190,2018-01-14
1782,Sold,Hemba,0xf6852d,0.18Ξ ($146),"Feb 11, 2018",0.18,146,2018-02-11
1784,Sold,MBK,ArtBlock…,2.85Ξ ($359),"Mar 22, 2020",2.85,359,2020-03-22
1784,Sold,0x8ad68e,MBK,1Ξ ($133),"Jan 03, 2020",1,133,2020-01-03
1784,Sold,0x00bd3a,0x8ad68e,0.39Ξ ($88),"Jul 24, 2017",0.39,88,2017-07-24
1785,Sold,4774681,robers,"6Ξ ($2,713)","Nov 09, 2020",6,2713,2020-11-09
1786,Sold,9155827,2563893,"28Ξ ($47,188)","Feb 23, 2021",28,47188,2021-02-23
1786,Sold,5734076,9155827,"7Ξ ($12,144)","Feb 09, 2021",7,12144,2021-02-09
1788,Sold,0x13816f,0xc9ab58,"6.50Ξ ($8,646)","Feb 01, 2021",6.5,8646,2021-02-01
1788,Sold,Hemba,KittyGr_…,0.08Ξ ($45),"Jun 08, 2018",0.08,45,2018-06-08
1790,Sold,Hemba,0x2478c4,0.48Ξ ($104),"Jul 21, 2017",0.48,104,2017-07-21
1791,Sold,0x0e9aed,0xddfdcb,"22.99Ξ ($47,650)","Apr 09, 2021",22.99,47650,2021-04-09
1791,Sold,0x62bdc6,0x0e9aed,"15.47Ξ ($32,967)","Apr 06, 2021",15.47,32967,2021-04-06
1791,Sold,ross_VRO…,0xbd9e32,"8Ξ ($14,742)","Feb 14, 2021",8,14742,2021-02-14
1791,Sold,0x13816f,ross_VRO…,"7.25Ξ ($13,234)","Feb 13, 2021",7.25,13234,2021-02-13
1791,Sold,NeonNFT,0x13816f,"5.49Ξ ($1,902)","Oct 04, 2020",5.49,1902,2020-10-04
1791,Sold,Hemba,KittyGr_…,0.08Ξ ($45),"Jun 08, 2018",0.08,45,2018-06-08
1794,Sold,15430239,7715726,"27.50Ξ ($49,572)","Feb 22, 2021",27.5,49572,2021-02-22
1794,Sold,52816,15430239,"19Ξ ($37,370)","Feb 19, 2021",19,37370,2021-02-19
1796,Sold,0x89eacd,0xd7e7bc,"21.40Ξ ($45,499)","Apr 06, 2021",21.4,45499,2021-04-06
1796,Sold,Pranksy,0x89eacd,"18.99Ξ ($39,888)","Apr 03, 2021",18.99,39888,2021-04-03
1796,Sold,0x34e801,Pranksy,"10.00Ξ ($16,289)","Feb 08, 2021",10,16289,2021-02-08
1796,Sold,CPyrc,0x34e801,"8.99Ξ ($11,834)","Feb 01, 2021",8.99,11834,2021-02-01
1796,Sold,Hemba,KittyGr_…,0.08Ξ ($45),"Jun 08, 2018",0.08,45,2018-06-08
1797,Sold,0x3e17fa,gCAN,"3.80Ξ ($1,796)","Nov 19, 2020",3.8,1796,2020-11-19
1797,Sold,GoWest23,0x3e17fa,"3.75Ξ ($1,297)","Sep 24, 2020",3.75,1297,2020-09-24
1797,Sold,Pranksy,GoWest23,1Ξ ($135),"Jan 04, 2020",1,135,2020-01-04
1797,Sold,0x00d7c9,Pranksy,0.40Ξ ($109),"Jun 20, 2019",0.4,109,2019-06-20
1798,Sold,0xb9c71d,0x0e4437,"45Ξ ($66,129)","Feb 27, 2021",45,66129,2021-02-27
1798,Sold,CPyrc,0xb9c71d,"17Ξ ($31,488)","Feb 17, 2021",17,31488,2021-02-17
1798,Sold,OnlyToas…,CPyrc,"12Ξ ($21,703)","Feb 14, 2021",12,21703,2021-02-14
1798,Sold,0x4960c4…,OnlyToas…,"11.00Ξ ($20,111)","Feb 14, 2021",11,20111,2021-02-14
1798,Sold,0xd44d42,0x4960c4…,"9Ξ ($16,359)","Feb 10, 2021",9,16359,2021-02-10
1802,Sold,TokenAng…,Slats_et…,"5Ξ ($1,051)","May 24, 2020",5,1051,2020-05-24
1802,Sold,0x4dcaf3,TokenAng…,1.75Ξ ($462),"Jun 14, 2019",1.75,462,2019-06-14
1802,Sold,test123.…,0x4dcaf3,1Ξ ($286),"Jun 27, 2017",1,286,2017-06-27
1803,Sold,10734384,5101855,"19Ξ ($39,273)","Apr 08, 2021",19,39273,2021-04-08
1804,Sold,renaissa…,0x3efe8b,"23Ξ ($34,220)","Feb 27, 2021",23,34220,2021-02-27
1804,Sold,0x577ebc,renaissa…,"11.50Ξ ($21,091)","Feb 17, 2021",11.5,21091,2021-02-17
1805,Sold,2233870,45688,0.31Ξ ($69),"Jul 18, 2017",0.31,69,2017-07-18
1808,Sold,0x491be7,0x05e06f,"13.88Ξ ($26,827)","Feb 21, 2021",13.88,26827,2021-02-21
1808,Sold,Hemba,KittyGr_…,0.08Ξ ($45),"Jun 08, 2018",0.08,45,2018-06-08
1812,Sold,0xef764b…,0xaaaba0,"29.99Ξ ($54,013)","Mar 15, 2021",29.99,54013,2021-03-15
1812,Sold,0xaae8c5,0x1daa36,"24.90Ξ ($37,166)","Feb 23, 2021",24.9,37166,2021-02-23
1812,Sold,eivindkl…,0x11c9a7,"5Ξ ($3,119)","Dec 22, 2020",5,3119,2020-12-22
1812,Sold,223332,eivindkl…,2.20Ξ ($741),"Sep 22, 2020",2.2,741,2020-09-22
1812,Sold,DANNY,223332,0.91Ξ ($307),"Jul 31, 2020",0.91,307,2020-07-31
1812,Sold,treetop,DANNY,0.59Ξ ($109),"May 11, 2020",0.59,109,2020-05-11
1812,Sold,TokyoBas…,treetop,0.50Ξ ($77),"Apr 13, 2020",0.5,77,2020-04-13
1814,Sold,0x2f6714,0x374ca9,"20Ξ ($35,582)","Feb 22, 2021",20,35582,2021-02-22
1814,Sold,0xab5ec1,0x2f6714,"13Ξ ($25,435)","Feb 19, 2021",13,25435,2021-02-19
1814,Sold,0x07c5ea,0xab5ec1,"8.75Ξ ($15,620)","Feb 16, 2021",8.75,15620,2021-02-16
1814,Sold,0x13816f,0x07c5ea,"7.75Ξ ($14,014)","Feb 14, 2021",7.75,14014,2021-02-14
1814,Sold,0x3ba9cd,0x13816f,"3.10Ξ ($1,091)","Sep 27, 2020",3.1,1091,2020-09-27
1814,Sold,Carlini8,0x3ba9cd,2.30Ξ ($799),"Sep 24, 2020",2.3,799,2020-09-24
1814,Sold,Pranksy,Carlini8,1.80Ξ ($678),"Sep 14, 2020",1.8,678,2020-09-14
1814,Sold,0x48db19,Pranksy,1.33Ξ ($487),"Sep 11, 2020",1.33,487,2020-09-11
1819,Sold,shilpixe…,0x5b098b,0.30Ξ ($88),"Aug 18, 2017",0.3,88,2017-08-18
1824,Sold,13537280,10393464,"7.80Ξ ($14,171)","Feb 13, 2021",7.8,14171,2021-02-13
1824,Sold,11004839,15938356,"5Ξ ($6,344)","Jan 21, 2021",5,6344,2021-01-21
1824,Sold,4774681,11004839,"5Ξ ($1,705)","Oct 07, 2020",5,1705,2020-10-07
1825,Sold,0x07c5ea,0x73ee16,"22.50Ξ ($43,167)","Feb 22, 2021",22.5,43167,2021-02-22
1825,Sold,0xe9581f,0x07c5ea,"18.99Ξ ($37,113)","Feb 21, 2021",18.99,37113,2021-02-21
1825,Sold,ross_VRO…,0xe9581f,"13.12Ξ ($23,794)","Feb 17, 2021",13.12,23794,2021-02-17
1825,Sold,Pranksy,ross_VRO…,1.49Ξ ($300),"May 16, 2020",1.49,300,2020-05-16
1825,Sold,0x00d7c9,Pranksy,0.40Ξ ($109),"Jun 20, 2019",0.4,109,2019-06-20
1828,Sold,5734076,644104,"11.25Ξ ($16,707)","Feb 02, 2021",11.25,16707,2021-02-02
1829,Sold,0xa7bd74,0x4dfac3,"21.99Ξ ($34,661)","Mar 25, 2021",21.99,34661,2021-03-25
1829,Sold,0x6ec30f,0xa7bd74,"20.42Ξ ($36,427)","Mar 21, 2021",20.42,36427,2021-03-21
1829,Sold,🍄mario.…,0x6ec30f,"23.47Ξ ($41,838)","Mar 17, 2021",23.47,41838,2021-03-17
1829,Sold,0x577ebc,🍄mario.…,"19Ξ ($33,165)","Mar 08, 2021",19,33165,2021-03-08
1830,Sold,0x491be7,0xa37ed0,"18.50Ξ ($36,146)","Feb 21, 2021",18.5,36146,2021-02-21
1830,Sold,Hemba,KittyGr_…,0.08Ξ ($45),"Jun 08, 2018",0.08,45,2018-06-08
1831,Sold,0xe03559,TokenAng…,"36Ξ ($65,645)","Mar 09, 2021",36,65645,2021-03-09
1832,Sold,Hemba,KittyGr_…,0.08Ξ ($45),"Jun 08, 2018",0.08,45,2018-06-08
1833,Sold,0xaae8c5,azkaban,"4.29Ξ ($5,549)","Jan 10, 2021",4.29,5549,2021-01-10
1833,Sold,Zocktay,0xaae8c5,"4.20Ξ ($5,127)","Jan 08, 2021",4.2,5127,2021-01-08
1833,Sold,Pranksy,Zocktay,0.55Ξ ($107),"Mar 09, 2020",0.55,107,2020-03-09
1833,Sold,0x00d7c9,Pranksy,0.40Ξ ($109),"Jun 20, 2019",0.4,109,2019-06-20
1834,Sold,Hemba,0x7f6ca7,0.11Ξ ($72),"Dec 12, 2017",0.11,72,2017-12-12
1836,Sold,Hemba,dustmrtn,0.08Ξ ($61),"May 05, 2018",0.08,61,2018-05-05
1837,Sold,4656795,Kenney,0.16Ξ ($166),"Jan 26, 2018",0.16,166,2018-01-26
1838,Sold,0x5b098b,0xaa126e…,"4.23Ξ ($1,358)","Sep 23, 2020",4.23,1358,2020-09-23
1839,Sold,Pranksy,0xc05488,"360Ξ ($653,814)","Mar 12, 2021",360,653814,2021-03-12
1839,Sold,0xfba169,Pranksy,"65Ξ ($87,562)","Feb 28, 2021",65,87562,2021-02-28
1840,Sold,2233870,45688,0.31Ξ ($69),"Jul 18, 2017",0.31,69,2017-07-18
1841,Sold,Pranksy,0x9b35db,1.20Ξ ($486),"Aug 30, 2020",1.2,486,2020-08-30
1841,Sold,0x00d7c9,Pranksy,0.40Ξ ($109),"Jun 20, 2019",0.4,109,2019-06-20
1841,Sold,0x948a10,0x00d7c9,0.40Ξ ($98),"Jul 08, 2017",0.4,98,2017-07-08
1841,Sold,0x5b098b,0x948a10,0.25Ξ ($82),"Jun 23, 2017",0.25,82,2017-06-23
1842,Sold,Pixls,bnolan,0.34Ξ ($56),"Apr 24, 2019",0.34,56,2019-04-24
1842,Sold,jmg,Pixls,0.19Ξ ($17),"Dec 06, 2018",0.19,17,2018-12-06
1842,Sold,Hemba,0x00bd3a,0.40Ξ ($76),"Jul 11, 2017",0.4,76,2017-07-11
1845,Sold,0xddb7bf,0x7f100d,"15Ξ ($27,668)","Mar 10, 2021",15,27668,2021-03-10
1845,Sold,chints,0xddb7bf,"22.40Ξ ($35,277)","Mar 02, 2021",22.4,35277,2021-03-02
1845,Sold,Collin3,Party,1.95Ξ ($935),"Nov 17, 2020",1.95,935,2020-11-17
1845,Sold,Party,Collin3,"4.25Ξ ($1,493)","Oct 08, 2020",4.25,1493,2020-10-08
1845,Sold,Lmao,Party,"3.52Ξ ($1,236)","Oct 08, 2020",3.52,1236,2020-10-08
1845,Sold,LSD,Lmao,"5Ξ ($1,766)","Oct 05, 2020",5,1766,2020-10-05
1845,Sold,0x8234be,0x0a4eaf…,0.25Ξ ($75),"Aug 16, 2017",0.25,75,2017-08-16
1846,Sold,Pranksy,MBK,0.50Ξ ($66),"Jan 01, 2020",0.5,66,2020-01-01
1846,Sold,0x00d7c9,Pranksy,0.40Ξ ($109),"Jun 20, 2019",0.4,109,2019-06-20
1848,Sold,2233870,45688,0.31Ξ ($69),"Jul 18, 2017",0.31,69,2017-07-18
1851,Sold,0x1a5fe2,0x9e1e40,0.14Ξ ($147),"Jan 26, 2018",0.14,147,2018-01-26
1851,Sold,Hemba,0x1a5fe2,0.12Ξ ($87),"Dec 13, 2017",0.12,87,2017-12-13
1852,Sold,0xd6d7ea,0xc6ef4a,"21.42Ξ ($41,058)","Feb 22, 2021",21.42,41058,2021-02-22
1852,Sold,0xddfdcb,0xd6d7ea,"18.60Ξ ($36,341)","Feb 21, 2021",18.6,36341,2021-02-21
1852,Sold,0x13816f,0xddfdcb,"8.45Ξ ($15,420)","Feb 14, 2021",8.45,15420,2021-02-14
1852,Sold,CPyrc,0x13816f,"5.25Ξ ($1,827)","Oct 04, 2020",5.25,1827,2020-10-04
1852,Sold,Hemba,KittyGr_…,0.08Ξ ($45),"Jun 08, 2018",0.08,45,2018-06-08
1853,Sold,0x491be7,0x0e6167,"17.50Ξ ($34,526)","Feb 21, 2021",17.5,34526,2021-02-21
1853,Sold,Hemba,KittyGr_…,0.08Ξ ($45),"Jun 08, 2018",0.08,45,2018-06-08
1854,Sold,0x7c511d,7823584,0.10Ξ ($52),"Jun 14, 2018",0.1,52,2018-06-14
1855,Sold,2233870,45688,0.31Ξ ($69),"Jul 18, 2017",0.31,69,2017-07-18
1856,Sold,Cyborg,0x00b278,0.35Ξ ($84),"Jul 07, 2017",0.35,84,2017-07-07
1857,Sold,0xe77311,0xb887d7,"35Ξ ($53,426)","Mar 01, 2021",35,53426,2021-03-01
1857,Sold,Hemba,0xd9c5e9,0.08Ξ ($43),"May 31, 2018",0.08,43,2018-05-31
1859,Sold,jmg,0x052564,"6.79Ξ ($2,477)","Sep 28, 2020",6.79,2477,2020-09-28
1859,Sold,Pranksy,jmg,0.35Ξ ($74),"Aug 09, 2019",0.35,74,2019-08-09
1859,Sold,0x00d7c9,Pranksy,0.40Ξ ($109),"Jun 20, 2019",0.4,109,2019-06-20
1859,Sold,0x00bd3a,0x00d7c9,0.39Ξ ($96),"Jul 08, 2017",0.39,96,2017-07-08
1859,Sold,Cyborg,0x00bd3a,0.30Ξ ($85),"Jul 02, 2017",0.3,85,2017-07-02
1860,Sold,Sylveste…,🖕🖕🖕.e…,"8.50Ξ ($3,200)","Oct 14, 2020",8.5,3200,2020-10-14
1860,Sold,0xcb832d,Sylveste…,"5.90Ξ ($2,175)","Sep 16, 2020",5.9,2175,2020-09-16
1860,Sold,0xa1179f,0xcb832d,2.50Ξ ($529),"May 09, 2020",2.5,529,2020-05-09
1860,Sold,0x00d7c9,0xa1179f,0.50Ξ ($87),"Apr 18, 2019",0.5,87,2019-04-18
1864,Sold,0x6b88ac,NFTinTin,0.65Ξ ($86),"Mar 14, 2019",0.65,86,2019-03-14
1864,Sold,0x00d7c9,0x6b88ac,0.40Ξ ($82),"Jul 10, 2017",0.4,82,2017-07-10
1866,Sold,5734076,644104,"11.25Ξ ($16,707)","Feb 02, 2021",11.25,16707,2021-02-02
1870,Sold,renaissa…,🤹🏻‍♂.e…,"8.75Ξ ($11,029)","Jan 27, 2021",8.75,11029,2021-01-27
1870,Sold,MadMax,renaissa…,"6.75Ξ ($2,558)","Sep 17, 2020",6.75,2558,2020-09-17
1870,Sold,mikedema…,MadMax,1Ξ ($388),"Aug 23, 2020",1,388,2020-08-23
1870,Sold,0x00d7c9,0x91d6e2,0.70Ξ ($164),"May 18, 2019",0.7,164,2019-05-18
1871,Sold,14693721,2992098,"34Ξ ($70,400)","Apr 03, 2021",34,70400,2021-04-03
1872,Sold,Hemba,Kenney,0.16Ξ ($158),"Jan 23, 2018",0.16,158,2018-01-23
1874,Sold,Hemba,0x12d36f,0.08Ξ ($52),"May 19, 2018",0.08,52,2018-05-19
1875,Sold,0x61e7e7,Kataster…,1.25Ξ ($178),"Jan 06, 2020",1.25,178,2020-01-06
1875,Sold,0xfb077c,0x581b59,0.75Ξ ($204),"Jun 20, 2019",0.75,204,2019-06-20
1880,Sold,0x1c558e,0x101059,"11.75Ξ ($20,882)","Feb 17, 2021",11.75,20882,2021-02-17
1880,Sold,0x13816f,0x1c558e,"7.80Ξ ($13,623)","Feb 09, 2021",7.8,13623,2021-02-09
1880,Sold,0xb84099,0x13816f,"5.97Ξ ($2,130)","Sep 30, 2020",5.97,2130,2020-09-30
1880,Sold,Hemba,KittyGr_…,0.08Ξ ($45),"Jun 08, 2018",0.08,45,2018-06-08
1884,Sold,1700403,7078809,"37Ξ ($55,458)","Mar 03, 2021",37,55458,2021-03-03
1886,Sold,48442,6689278,2.29Ξ ($643),"Jun 30, 2017",2.29,643,2017-06-30
1886,Sold,5530334,48442,1Ξ ($316),"Jun 28, 2017",1,316,2017-06-28
1890,Sold,0xa762aa,wookie.e…,"15.50Ξ ($29,912)","Apr 01, 2021",15.5,29912,2021-04-01
1890,Sold,OnlyToas…,0xa762aa,"13.50Ξ ($25,729)","Feb 18, 2021",13.5,25729,2021-02-18
1890,Sold,0xbc8da2,OnlyToas…,"9.90Ξ ($18,785)","Feb 18, 2021",9.9,18785,2021-02-18
1890,Sold,Hemba,0xbc8da2,0.13Ξ ($106),"Dec 19, 2017",0.13,106,2017-12-19
1891,Sold,0x691b87,0x1e243e,"29.99Ξ ($54,707)","Mar 19, 2021",29.99,54707,2021-03-19
1891,Sold,pelvis.e…,0xeb725f,"15.00Ξ ($27,510)","Feb 17, 2021",15,27510,2021-02-17
1891,Sold,0xf1b658,pelvis.e…,"8.50Ξ ($15,825)","Feb 13, 2021",8.5,15825,2021-02-13
1891,Sold,ross_VRO…,0x5b331e,"7.99Ξ ($13,897)","Feb 09, 2021",7.99,13897,2021-02-09
1891,Sold,Pranksy,ross_VRO…,0.90Ξ ($128),"Jan 07, 2020",0.9,128,2020-01-07
1891,Sold,0x00d7c9,Pranksy,0.40Ξ ($118),"Jun 21, 2019",0.4,118,2019-06-21
1892,Sold,0xcbd482,sov,0.55Ξ ($125),"Jul 18, 2017",0.55,125,2017-07-18
1895,Sold,Hemba,0x51d5aa,0.10Ξ ($29),"Aug 18, 2018",0.1,29,2018-08-18
1897,Sold,tstorm.e…,0x03fbbf,0.15Ξ ($130),"Feb 26, 2018",0.15,130,2018-02-26
1898,Sold,0xaea8e3,0x52065b,"17.99Ξ ($33,151)","Mar 30, 2021",17.99,33151,2021-03-30
1898,Sold,0x10b4c1,0xaea8e3,"20.50Ξ ($36,557)","Mar 19, 2021",20.5,36557,2021-03-19
1898,Sold,metakid,0x10b4c1,"5Ξ ($1,824)","Sep 28, 2020",5,1824,2020-09-28
1899,Sold,Hemba,0x8a873b…,0.07Ξ ($30),"Jul 31, 2018",0.07,30,2018-07-31
1901,Sold,13886183,3642036,"19.90Ξ ($38,428)","Feb 21, 2021",19.9,38428,2021-02-21
1901,Sold,5734076,13886183,"8.10Ξ ($14,603)","Feb 15, 2021",8.1,14603,2021-02-15
1902,Sold,ross_VRO…,0xe8aea1,"24.20Ξ ($36,645)","Feb 27, 2021",24.2,36645,2021-02-27
1902,Sold,0xddfdcb,ross_VRO…,"19.49Ξ ($37,517)","Feb 21, 2021",19.49,37517,2021-02-21
1902,Sold,0x577ebc,0xddfdcb,"11Ξ ($20,375)","Feb 17, 2021",11,20375,2021-02-17
1903,Sold,0x8ba3e2,10898397,0.35Ξ ($158),"Dec 08, 2017",0.35,158,2017-12-08
1903,Sold,0xc0f5dd,9151458,0.50Ξ ($155),"Sep 27, 2017",0.5,155,2017-09-27
1904,Sold,wookie.e…,0xcb8172,"26Ξ ($40,516)","Mar 02, 2021",26,40516,2021-03-02
1904,Sold,0x9b35db,illestra…,"3.70Ξ ($2,267)","Dec 21, 2020",3.7,2267,2020-12-21
1904,Sold,0xe58bb9…,nostro,"4.80Ξ ($1,762)","Oct 10, 2020",4.8,1762,2020-10-10
1904,Sold,Pranksy,0xe58bb9…,0.30Ξ ($54),"Oct 08, 2019",0.3,54,2019-10-08
1904,Sold,0x00d7c9,Pranksy,0.40Ξ ($109),"Jun 20, 2019",0.4,109,2019-06-20
1904,Sold,0xbc081c,0x00d7c9,0.30Ξ ($69),"Jul 22, 2017",0.3,69,2017-07-22
1905,Sold,2233870,45688,0.31Ξ ($69),"Jul 18, 2017",0.31,69,2017-07-18
1908,Sold,🤹🏻‍♂.e…,0x18ee9c,"17.90Ξ ($34,700)","Apr 01, 2021",17.9,34700,2021-04-01
1908,Sold,0xdc3689,🤹🏻‍♂.e…,"4.80Ξ ($6,636)","Jan 30, 2021",4.8,6636,2021-01-30
1908,Sold,NeonNFT,99Zed,"4.29Ξ ($1,579)","Oct 17, 2020",4.29,1579,2020-10-17
1908,Sold,0x6c3e00,NeonNFT,"4.10Ξ ($1,507)","Oct 17, 2020",4.1,1507,2020-10-17
1908,Sold,0xa3cb30,0x6c3e00,"5.50Ξ ($2,103)","Oct 14, 2020",5.5,2103,2020-10-14
1910,Sold,5734076,8417878,"24.99Ξ ($45,251)","Mar 19, 2021",24.99,45251,2021-03-19
1912,Sold,Hemba,0xb06a16,0.10Ξ ($41),"Aug 02, 2018",0.1,41,2018-08-02
1913,Sold,5734076,9155827,"7Ξ ($10,025)","Feb 02, 2021",7,10025,2021-02-02
1916,Sold,4656795,Snowfro,0.40Ξ ($63),"Apr 29, 2019",0.4,63,2019-04-29
1921,Sold,13401139,11367639,"7.99Ξ ($14,520)","Feb 14, 2021",7.99,14520,2021-02-14
1932,Sold,charley,0xbfd706,"12.49Ξ ($22,332)","Feb 16, 2021",12.49,22332,2021-02-16
1932,Sold,akii,0x11c9a7,"4.25Ξ ($1,925)","Nov 10, 2020",4.25,1925,2020-11-10
1932,Sold,Cerf,akii,"3Ξ ($1,175)","Oct 29, 2020",3,1175,2020-10-29
1932,Sold,0x00d7c9,Cerf,0.45Ξ ($76),"May 07, 2019",0.45,76,2019-05-07
1934,Sold,0xe5e771,0x3d8ab4,"5.75Ξ ($8,332)","Jan 25, 2021",5.75,8332,2021-01-25
1934,Sold,Ranger,0xe5e771,2.50Ξ ($854),"Sep 23, 2020",2.5,854,2020-09-23
1934,Sold,0x00d7c9,Pranksy,0.40Ξ ($109),"Jun 20, 2019",0.4,109,2019-06-20
1935,Sold,0x5462de,16745492,1.18Ξ ($316),"Jul 04, 2017",1.18,316,2017-07-04
1936,Sold,wookie.e…,0x51636d,"23Ξ ($40,052)","Mar 08, 2021",23,40052,2021-03-08
1937,Sold,aurelia-…,0xa289be,"26Ξ ($46,734)","Mar 18, 2021",26,46734,2021-03-18
1937,Sold,0xbae25a,aurelia-…,"25.99Ξ ($46,532)","Mar 17, 2021",25.99,46532,2021-03-17
1937,Sold,0x577ebc,0xbae25a,"24Ξ ($43,514)","Mar 12, 2021",24,43514,2021-03-12
1939,Sold,5734076,5091805,"28.99Ξ ($51,507)","Mar 18, 2021",28.99,51507,2021-03-18
1941,Sold,13401139,4209597,"33Ξ ($68,323)","Apr 09, 2021",33,68323,2021-04-09
1944,Sold,ross_VRO…,0x18844b,"19.44Ξ ($37,189)","Feb 18, 2021",19.44,37189,2021-02-18
1944,Sold,0xcc7c33,ross_VRO…,0.88Ξ ($122),"Jan 10, 2020",0.88,122,2020-01-10
1946,Sold,SenecaEt…,0xe4f0ac,"55Ξ ($86,061)","Feb 24, 2021",55,86061,2021-02-24
1946,Sold,scalynel…,SenecaEt…,"9.75Ξ ($12,225)","Jan 28, 2021",9.75,12225,2021-01-28
1946,Sold,0xb05b7d,scalynel…,"6.75Ξ ($8,473)","Jan 24, 2021",6.75,8473,2021-01-24
1948,Sold,Hemba,PB,0.10Ξ ($50),"Jun 17, 2018",0.1,50,2018-06-17
1951,Sold,0x577ebc,MadMax,"11Ξ ($19,990)","Feb 14, 2021",11,19990,2021-02-14
1953,Sold,5734076,5657750,"44.99Ξ ($79,979)","Mar 15, 2021",44.99,79979,2021-03-15
1956,Sold,55241,Kenney,0.10Ξ ($59),"May 26, 2018",0.1,59,2018-05-26
1957,Sold,0xde0193,Cry,"4Ξ ($2,931)","Dec 31, 2020",4,2931,2020-12-31
1958,Sold,0x577ebc,pelvis.e…,"30Ξ ($52,438)","Mar 12, 2021",30,52438,2021-03-12
1961,Sold,5734076,659510,"23Ξ ($36,575)","Mar 04, 2021",23,36575,2021-03-04
1962,Sold,9155827,8226176,"24.99Ξ ($44,710)","Mar 11, 2021",24.99,44710,2021-03-11
1963,Sold,sov,DANNY,"23Ξ ($8,458)","Sep 15, 2020",23,8458,2020-09-15
1963,Sold,0xcbd482,sov,0.41Ξ ($97),"Jul 09, 2017",0.41,97,2017-07-09
1966,Sold,👨🏻‍🌾.…,0x379133,"15.50Ξ ($30,371)","Apr 07, 2021",15.5,30371,2021-04-07
1966,Sold,0xcc7c33,👨🏻‍🌾.…,"8.99Ξ ($16,259)","Feb 14, 2021",8.99,16259,2021-02-14
1967,Sold,0x84c920,0x29b1b2,"45Ξ ($72,617)","Mar 03, 2021",45,72617,2021-03-03
1967,Sold,TokenAng…,0x84c920,"40Ξ ($54,266)","Feb 28, 2021",40,54266,2021-02-28
1967,Sold,0xcc7c33,TokenAng…,"19.67Ξ ($26,220)","Jan 28, 2021",19.67,26220,2021-01-28
1968,Sold,0xcbd482,redlione…,"5Ξ ($5,868)","Jan 17, 2021",5,5868,2021-01-17
1970,Sold,0xaea8e3,12270368,"23.99Ξ ($45,632)","Mar 14, 2021",23.99,45632,2021-03-14
1970,Sold,0xe03559,11446499,"20Ξ ($31,489)","Mar 02, 2021",20,31489,2021-03-02
1971,Sold,14693721,5127863,"36Ξ ($65,495)","Mar 17, 2021",36,65495,2021-03-17
1973,Sold,14693721,15025184,"30Ξ ($51,312)","Mar 23, 2021",30,51312,2021-03-23
1977,Sold,14693721,4774075,"30Ξ ($62,106)","Apr 10, 2021",30,62106,2021-04-10
1978,Sold,5734076,1975358,"16Ξ ($30,435)","Feb 18, 2021",16,30435,2021-02-18
1979,Sold,0xe03559,5560313,"60Ξ ($129,028)","Apr 11, 2021",60,129028,2021-04-11
1981,Sold,0x84c920,0xa567b9,"16Ξ ($25,367)","Mar 06, 2021",16,25367,2021-03-06
1981,Sold,gaus,0x84c920,"21Ξ ($30,946)","Mar 05, 2021",21,30946,2021-03-05
1981,Sold,0xe03559,0xaae8c5,"20Ξ ($31,489)","Mar 02, 2021",20,31489,2021-03-02
1991,Sold,Pranksy,0x65ba94,"29.99Ξ ($44,384)","Feb 27, 2021",29.99,44384,2021-02-27
1991,Sold,0xef768e,Pranksy,"25Ξ ($40,646)","Feb 25, 2021",25,40646,2021-02-25
1998,Sold,15693454,NFTinTin,"21Ξ ($34,119)","Mar 24, 2021",21,34119,2021-03-24
2000,Sold,0xa9bfa9,12800693,0.40Ξ ($90),"Aug 03, 2017",0.4,90,2017-08-03
2002,Sold,13358210,7823584,0.15Ξ ($41),"Jul 03, 2017",0.15,41,2017-07-03
2008,Sold,Hemba,Kenney,0.15Ξ ($175),"Jan 29, 2018",0.15,175,2018-01-29
2011,Sold,13252568,15025184,"28Ξ ($47,891)","Mar 23, 2021",28,47891,2021-03-23
2011,Sold,14693721,13252568,"25Ξ ($39,372)","Mar 02, 2021",25,39372,2021-03-02
2013,Sold,0xb10004,0x8a3d2e,"65Ξ ($134,588)","Apr 08, 2021",65,134588,2021-04-08
2013,Sold,ddaavvee,0xb10004,"48Ξ ($84,570)","Feb 22, 2021",48,84570,2021-02-22
2015,Sold,0x62bdc6,0x052564,"45Ξ ($96,138)","Apr 10, 2021",45,96138,2021-04-10
2015,Sold,0x7f3aff,0x62bdc6,"42Ξ ($86,683)","Apr 08, 2021",42,86683,2021-04-08
2015,Sold,shilpixe…,0x7f3aff,"41Ξ ($78,714)","Feb 19, 2021",41,78714,2021-02-19
2016,Sold,shilpixe…,0x287b15,0.35Ξ ($448),"Jan 15, 2018",0.35,448,2018-01-15
2023,Sold,0xe03559,0x7bb62d,"22Ξ ($34,638)","Mar 02, 2021",22,34638,2021-03-02
2024,Sold,ddaavvee,0x67c443,"20.24Ξ ($39,658)","Feb 21, 2021",20.24,39658,2021-02-21
2028,Sold,Hemba,Kenney,0.10Ξ ($105),"Jan 16, 2018",0.1,105,2018-01-16
2031,Sold,kingskin…,0xea9724,"7.50Ξ ($9,396)","Jan 23, 2021",7.5,9396,2021-01-23
2031,Sold,FunBum69,kingskin…,2.50Ξ ($914),"Sep 15, 2020",2.5,914,2020-09-15
2031,Sold,0xbull,BumFun69,1.48Ξ ($353),"Jun 01, 2020",1.48,353,2020-06-01
2031,Sold,Shrugs,0xbull,1.42Ξ ($293),"May 27, 2020",1.42,293,2020-05-27
2031,Sold,Hemba,Shrugs,0.30Ξ ($83),"Aug 15, 2018",0.3,83,2018-08-15
2032,Sold,Hemba,0x98c488,0.70Ξ ($141),"May 17, 2020",0.7,141,2020-05-17
2036,Sold,MadMax,0x568cf5,"5.55Ξ ($2,001)","Sep 30, 2020",5.55,2001,2020-09-30
2036,Sold,0xfa75cb,MadMax,"5Ξ ($1,803)","Sep 30, 2020",5,1803,2020-09-30
2036,Sold,Hemba,0xfa75cb,0.27Ξ ($32),"Nov 25, 2018",0.27,32,2018-11-25
2037,Sold,renaissa…,0x0e6167,"17.80Ξ ($35,118)","Feb 21, 2021",17.8,35118,2021-02-21
2037,Sold,0x577ebc,renaissa…,"9.60Ξ ($16,810)","Feb 16, 2021",9.6,16810,2021-02-16
2038,Sold,Hemba,0x2e2e26,0.30Ξ ($35),"Dec 22, 2018",0.3,35,2018-12-22
2039,Sold,10734384,11643633,"22.99Ξ ($40,930)","Mar 17, 2021",22.99,40930,2021-03-17
2040,Sold,Hemba,0x9e199d,0.29Ξ ($57),"Oct 12, 2018",0.29,57,2018-10-12
2041,Sold,0x577ebc,monopoly…,"41.99Ξ ($78,094)","Mar 15, 2021",41.99,78094,2021-03-15
2042,Sold,0x0b88fd,16037029,"40Ξ ($73,305)","Mar 20, 2021",40,73305,2021-03-20
2043,Sold,0x033ee7,0xa66f42,"4.98Ξ ($6,769)","Jan 29, 2021",4.98,6769,2021-01-29
2043,Sold,7478,0x033ee7,"3Ξ ($1,037)","Sep 24, 2020",3,1037,2020-09-24
2043,Sold,0xf0f068…,7478,0.60Ξ ($135),"Feb 09, 2020",0.6,135,2020-02-09
2043,Sold,MrTpunks…,0xf0f068…,0.55Ξ ($103),"Feb 02, 2020",0.55,103,2020-02-02
2043,Sold,Goop,MrTpunks…,0.46Ξ ($63),"Jan 05, 2020",0.46,63,2020-01-05
2043,Sold,ross_VRO…,Goop,0.45Ξ ($61),"Jan 04, 2020",0.45,61,2020-01-04
2043,Sold,Pixls,ross_VRO…,0.30Ξ ($41),"Mar 28, 2019",0.3,41,2019-03-28
2043,Sold,Hemba,Pixls,0.28Ξ ($39),"Dec 30, 2018",0.28,39,2018-12-30
2044,Sold,Pranksy,ross_VRO…,0.95Ξ ($135),"Jan 07, 2020",0.95,135,2020-01-07
2044,Sold,0x00d7c9,Pranksy,0.40Ξ ($109),"Jun 20, 2019",0.4,109,2019-06-20
2045,Sold,14966261,14671994,0.60Ξ ($161),"Jun 19, 2019",0.6,161,2019-06-19
2048,Sold,0xcbd482,7435267,0.05Ξ ($14),"Jun 27, 2017",0.05,14,2017-06-27
2049,Sold,0xa3cb30,simontay…,"12.50Ξ ($4,773)","Oct 14, 2020",12.5,4773,2020-10-14
2050,Sold,0xbc6c33,0x6dfc99,"16.10Ξ ($32,469)","Apr 08, 2021",16.1,32469,2021-04-08
2050,Sold,Gmugr,0xbc6c33,"15.33Ξ ($29,513)","Feb 18, 2021",15.33,29513,2021-02-18
2050,Sold,Artnome,Gmugr,"13Ξ ($23,921)","Feb 18, 2021",13,23921,2021-02-18
2050,Sold,Hemba,Artnome,0.13Ξ ($145),"Jan 07, 2018",0.13,145,2018-01-07
2054,Sold,Dude_Nak…,zonted,"5.95Ξ ($2,205)","Sep 12, 2020",5.95,2205,2020-09-12
2054,Sold,Pranksy,Dude_Nak…,1.11Ξ ($159),"Jan 07, 2020",1.11,159,2020-01-07
2054,Sold,0xf5099e,Pranksy,0.85Ξ ($141),"Sep 24, 2019",0.85,141,2019-09-24
2054,Sold,0x60206c,0xa0a59c,0.30Ξ ($62),"Jul 10, 2017",0.3,62,2017-07-10
2055,Sold,Hemba,dafky200…,0.12Ξ ($27),"Oct 02, 2018",0.12,27,2018-10-02
2056,Sold,8533182,9218204,0.11Ξ ($76),"Dec 14, 2017",0.11,76,2017-12-14
2057,Sold,0x1a96af,393680,1.99Ξ ($743),"Sep 14, 2020",1.99,743,2020-09-14
2061,Sold,0x3f1724,0x766bc6,"5.25Ξ ($6,728)","Jan 26, 2021",5.25,6728,2021-01-26
2061,Sold,Hemba,0x7f6ca7,0.11Ξ ($72),"Dec 12, 2017",0.11,72,2017-12-12
2063,Sold,Hemba,0x98c488,0.75Ξ ($151),"May 17, 2020",0.75,151,2020-05-17
2064,Sold,5331586,7435267,0.05Ξ ($14),"Jun 27, 2017",0.05,14,2017-06-27
2067,Sold,0xd69e74,0x8a3d2e,"18.90Ξ ($39,067)","Apr 08, 2021",18.9,39067,2021-04-08
2067,Sold,0x304288,0xd69e74,"19Ξ ($37,228)","Feb 21, 2021",19,37228,2021-02-21
2067,Sold,0x48db19,PM_disco…,1.10Ξ ($482),"Aug 17, 2020",1.1,482,2020-08-17
2068,Sold,5734076,13886183,"15.50Ξ ($27,585)","Feb 16, 2021",15.5,27585,2021-02-16
2069,Sold,stazie,0x76555d,"24.50Ξ ($45,704)","Mar 14, 2021",24.5,45704,2021-03-14
2069,Sold,0x1a96af,stazie,0.95Ξ ($186),"Apr 28, 2020",0.95,186,2020-04-28
2070,Sold,Hemba,0x890dbc,0.12Ξ ($100),"Feb 24, 2018",0.12,100,2018-02-24
2071,Sold,Hemba,0x7fb715,0.12Ξ ($84),"Dec 13, 2017",0.12,84,2017-12-13
2072,Sold,Hemba,0x8ca89c,0.14Ξ ($97),"Dec 14, 2017",0.14,97,2017-12-14
2073,Sold,Hemba,0xc352b5,0.18Ξ ($60),"Aug 10, 2018",0.18,60,2018-08-10
2074,Sold,0x577ebc,0xf1ab32,"23.99Ξ ($43,121)","Mar 18, 2021",23.99,43121,2021-03-18
2075,Sold,Hemba,PB,0.82Ξ ($176),"May 19, 2020",0.82,176,2020-05-19
2076,Sold,Deeze,0xab61cc,"20.49Ξ ($43,621)","Apr 11, 2021",20.49,43621,2021-04-11
2076,Sold,0x290b4e,gaus,2.60Ξ ($907),"Sep 25, 2020",2.6,907,2020-09-25
2076,Sold,Pranksy,0x290b4e,1.99Ξ ($674),"Sep 23, 2020",1.99,674,2020-09-23
2076,Sold,0xc69ae4,Pranksy,1.94Ξ ($731),"Sep 14, 2020",1.94,731,2020-09-14
2076,Sold,Hemba,0xc69ae4,1.10Ξ ($225),"May 25, 2020",1.1,225,2020-05-25
2077,Sold,straybit…,0x717403,0.25Ξ ($185),"Dec 29, 2017",0.25,185,2017-12-29
2080,Sold,0x3f1724,Novo311,1Ξ ($196),"Apr 27, 2020",1,196,2020-04-27
2080,Sold,cielxnoe…,0x3f1724,0.50Ξ ($69),"Mar 26, 2020",0.5,69,2020-03-26
2080,Sold,Hemba,cielxnoe…,0.10Ξ ($66),"Dec 12, 2017",0.1,66,2017-12-12
2084,Sold,0x515a82,7823584,0.35Ξ ($97),"Jul 03, 2017",0.35,97,2017-07-03
2086,Sold,0xadc455,8875338,"20.50Ξ ($34,697)","Mar 27, 2021",20.5,34697,2021-03-27
2086,Sold,0x48db19,4512062,"22Ξ ($42,170)","Feb 22, 2021",22,42170,2021-02-22
2088,Sold,0xd4442b,stewieth…,"19.99Ξ ($41,456)","Apr 09, 2021",19.99,41456,2021-04-09
2088,Sold,Deeze,0xd4442b,"19.79Ξ ($40,906)","Apr 08, 2021",19.79,40906,2021-04-08
2088,Sold,GoWest23,0x568cf5,"5.56Ξ ($1,967)","Sep 29, 2020",5.56,1967,2020-09-29
2088,Sold,Pixls,GoWest23,0.34Ξ ($59),"May 06, 2019",0.34,59,2019-05-06
2088,Sold,Dude_Nak…,Pixls,0.29Ξ ($42),"Dec 30, 2018",0.29,42,2018-12-30
2088,Sold,Hemba,Dude_Nak…,0.12Ξ ($24),"Oct 12, 2018",0.12,24,2018-10-12
2094,Sold,renaissa…,0x3731a5,"13Ξ ($23,921)","Feb 17, 2021",13,23921,2021-02-17
2094,Sold,panch,renaissa…,"8Ξ ($14,723)","Feb 14, 2021",8,14723,2021-02-14
2094,Sold,0xbc081c,panch,0.15Ξ ($63),"Dec 06, 2017",0.15,63,2017-12-06
2097,Sold,0xfb077c,Cryptgo,0.75Ξ ($172),"Aug 06, 2019",0.75,172,2019-08-06
2098,Sold,5331586,3422935,"18Ξ ($35,383)","Apr 07, 2021",18,35383,2021-04-07
2099,Sold,10895823,0xa80be8…,0.50Ξ ($266),"Jun 11, 2018",0.5,266,2018-06-11
2099,Sold,15208112,0xa641cf,0.15Ξ ($63),"Dec 07, 2017",0.15,63,2017-12-07
2099,Sold,14215174,0xe80eb0,0.11Ξ ($31),"Sep 23, 2017",0.11,31,2017-09-23
2101,Sold,ddaavvee,0x7760e0,0.25Ξ ($164),"Dec 22, 2017",0.25,164,2017-12-22
2102,Sold,Pixls,snowfro,0.16Ξ ($16),"Dec 05, 2018",0.16,16,2018-12-05
2102,Sold,Hemba,Pixls,0.13Ξ ($26),"Oct 18, 2018",0.13,26,2018-10-18
2103,Sold,Hemba,0x9aa6eb,0.12Ξ ($103),"Mar 03, 2018",0.12,103,2018-03-03
2105,Sold,8533182,2187245,0.15Ξ ($93),"Apr 20, 2018",0.15,93,2018-04-20
2106,Sold,MadMax,0x568cf5,"5.75Ξ ($2,091)","Sep 28, 2020",5.75,2091,2020-09-28
2106,Sold,0x6fb180,MadMax,"5.10Ξ ($1,854)","Sep 28, 2020",5.1,1854,2020-09-28
2106,Sold,Carlini8,0x6fb180,2Ξ ($731),"Sep 16, 2020",2,731,2020-09-16
2106,Sold,Shrugs,Carlini8,1.50Ξ ($564),"Sep 14, 2020",1.5,564,2020-09-14
2106,Sold,0x00d7c9,Shrugs,0.10Ξ ($136),"Jan 14, 2018",0.1,136,2018-01-14
2108,Sold,0xccc230,4418122,"20Ξ ($39,076)","Feb 21, 2021",20,39076,2021-02-21
2109,Sold,Hemba,0x8adbff,0.16Ξ ($115),"Dec 13, 2017",0.16,115,2017-12-13
2110,Sold,MBK,CryptoIn…,"7.40Ξ ($1,556)","May 20, 2020",7.4,1556,2020-05-20
2110,Sold,shilpixe…,MBK,2Ξ ($376),"Apr 25, 2020",2,376,2020-04-25
2111,Sold,Pranksy,0x491be7,"5.70Ξ ($2,006)","Oct 04, 2020",5.7,2006,2020-10-04
2111,Sold,KittyGr_…,Pranksy,"4Ξ ($1,411)","Oct 04, 2020",4,1411,2020-10-04
2111,Sold,0x8234be,KittyGr_…,0.10Ξ ($60),"Jun 08, 2018",0.1,60,2018-06-08
2112,Sold,redlione…,0x0e4437,"50Ξ ($90,052)","Mar 15, 2021",50,90052,2021-03-15
2112,Sold,0x577ebc,redlione…,"29Ξ ($52,698)","Feb 17, 2021",29,52698,2021-02-17
2113,Sold,Pranksy,0xcd2c66,1.20Ξ ($281),"Jun 17, 2020",1.2,281,2020-06-17
2113,Sold,Dude_Nak…,Pranksy,0.99Ξ ($209),"May 19, 2020",0.99,209,2020-05-19
2113,Sold,Fearless…,Dude_Nak…,0.50Ξ ($59),"Mar 13, 2020",0.5,59,2020-03-13
2113,Sold,Hemba,Fearless…,0.37Ξ ($44),"Jan 24, 2019",0.37,44,2019-01-24
2115,Sold,Hemba,0x374bd1,0.47Ξ ($115),"May 23, 2019",0.47,115,2019-05-23
2116,Sold,10074244,sov,0.50Ξ ($133),"Jul 05, 2017",0.5,133,2017-07-05
2117,Sold,shilpixe…,0x2e2e26,0.29Ξ ($34),"Dec 22, 2018",0.29,34,2018-12-22
2119,Sold,Hemba,0x8ca89c,0.11Ξ ($76),"Dec 14, 2017",0.11,76,2017-12-14
2122,Sold,13845089,4337580,"10Ξ ($18,194)","Feb 14, 2021",10,18194,2021-02-14
2125,Sold,0xd6d7ea,willholt…,"25.69Ξ ($52,854)","Apr 08, 2021",25.69,52854,2021-04-08
2125,Sold,taneleer…,0xd6d7ea,"22Ξ ($42,984)","Feb 21, 2021",22,42984,2021-02-21
2125,Sold,Slider92,taneleer…,"5.50Ξ ($6,819)","Jan 23, 2021",5.5,6819,2021-01-23
2125,Sold,Slider92,Zieg,"5.05Ξ ($1,907)","Oct 15, 2020",5.05,1907,2020-10-15
2125,Sold,0x7c18fd,Slider92,"5Ξ ($1,761)","Oct 06, 2020",5,1761,2020-10-06
2125,Sold,Carlini8,0x7c18fd,"5.99Ξ ($2,086)","Oct 03, 2020",5.99,2086,2020-10-03
2125,Sold,0xad4f9e,Carlini8,"5.80Ξ ($2,015)","Oct 03, 2020",5.8,2015,2020-10-03
2125,Sold,Dude_Nak…,0xad4f9e,"5.49Ξ ($1,895)","Oct 02, 2020",5.49,1895,2020-10-02
2125,Sold,Pranksy,Dude_Nak…,2.88Ξ ($996),"Sep 24, 2020",2.88,996,2020-09-24
2125,Sold,0xded2cb,evkort,"5Ξ ($1,914)","Sep 14, 2020",5,1914,2020-09-14
2126,Sold,13490252,13989912,"20.50Ξ ($30,657)","Feb 26, 2021",20.5,30657,2021-02-26
2126,Sold,1700403,13490252,"15Ξ ($29,810)","Feb 20, 2021",15,29810,2021-02-20
2127,Sold,0x94aa21,0xb10004,"24.80Ξ ($47,260)","Mar 14, 2021",24.8,47260,2021-03-14
2127,Sold,0x032bc4,0x94aa21,"14.92Ξ ($29,221)","Feb 19, 2021",14.92,29221,2021-02-19
2127,Sold,Hemba,0x032bc4,0.09Ξ ($100),"Jan 11, 2018",0.09,100,2018-01-11
2128,Sold,0x84c920,0x4e7b8d,"17.50Ξ ($26,740)","Mar 05, 2021",17.5,26740,2021-03-05
2128,Sold,gaus,0x84c920,"21Ξ ($30,946)","Mar 05, 2021",21,30946,2021-03-05
2128,Sold,0x07c5ea,0xd7510a,"8.75Ξ ($15,465)","Feb 16, 2021",8.75,15465,2021-02-16
2128,Sold,0x491be7,0x07c5ea,"7.70Ξ ($13,923)","Feb 14, 2021",7.7,13923,2021-02-14
2128,Sold,Cryptokk…,0x491be7,"5Ξ ($1,730)","Oct 03, 2020",5,1730,2020-10-03
2128,Sold,Hemba,Cryptokk…,0.34Ξ ($47),"Mar 05, 2019",0.34,47,2019-03-05
2129,Sold,Korniej,0x6ef237,"5.75Ξ ($3,614)","Dec 26, 2020",5.75,3614,2020-12-26
2129,Sold,Carlini8,Korniej,2.80Ξ ($905),"Sep 24, 2020",2.8,905,2020-09-24
2129,Sold,Pixls,Carlini8,2.20Ξ ($828),"Sep 15, 2020",2.2,828,2020-09-15
2129,Sold,Hemba,Pixls,0.26Ξ ($23),"Dec 08, 2018",0.26,23,2018-12-08
2131,Sold,14693721,14147703,"30Ξ ($62,750)","Apr 07, 2021",30,62750,2021-04-07
2132,Sold,test123.…,0x717403,1Ξ ($205),"Jul 13, 2017",1,205,2017-07-13
2134,Sold,Hemba,0xc352b5,0.26Ξ ($33),"Nov 20, 2018",0.26,33,2018-11-20
2135,Sold,0x491be7,0xf1e1c7,"26.50Ξ ($49,285)","Mar 15, 2021",26.5,49285,2021-03-15
2135,Sold,0x13816f,0x491be7,"12Ξ ($4,173)","Oct 03, 2020",12,4173,2020-10-03
2135,Sold,0x3ba9cd,0x13816f,"5.50Ξ ($1,957)","Sep 30, 2020",5.5,1957,2020-09-30
2135,Sold,Carlini8,0x3ba9cd,"3.30Ξ ($1,138)","Sep 25, 2020",3.3,1138,2020-09-25
2135,Sold,Davicio,Carlini8,"2.89Ξ ($1,087)","Sep 14, 2020",2.89,1087,2020-09-14
2135,Sold,MadMax,Davicio,1.60Ξ ($322),"May 27, 2020",1.6,322,2020-05-27
2135,Sold,Dude_Nak…,MadMax,0.95Ξ ($200),"May 20, 2020",0.95,200,2020-05-20
2135,Sold,Fearless…,Dude_Nak…,0.50Ξ ($59),"Mar 13, 2020",0.5,59,2020-03-13
2135,Sold,Hemba,Fearless…,0.33Ξ ($39),"Jan 24, 2019",0.33,39,2019-01-24
2136,Sold,Dude_Nak…,Spilliae…,"5.55Ξ ($1,928)","Oct 03, 2020",5.55,1928,2020-10-03
2136,Sold,renaissa…,Dude_Nak…,0.42Ξ ($53),"Jan 02, 2020",0.42,53,2020-01-02
2136,Sold,0x00d7c9,renaissa…,0.45Ξ ($112),"Jun 06, 2019",0.45,112,2019-06-06
2138,Sold,Hemba,0x8adbff,0.13Ξ ($91),"Dec 13, 2017",0.13,91,2017-12-13
2139,Sold,55241,Kenney,0.10Ξ ($105),"Jan 16, 2018",0.1,105,2018-01-16
2140,Sold,Pranksy,grunar.e…,750Ξ ($1.18M),"Mar 02, 2021",750,1180000,2021-03-02
2140,Sold,0x0cea5b,Pranksy,"400Ξ ($731,604)","Feb 22, 2021",400,731604,2021-02-22
2141,Sold,CryptoNo…,0x342232,"14.49Ξ ($27,799)","Feb 18, 2021",14.49,27799,2021-02-18
2141,Sold,Hemba,0xd07ee1,0.36Ξ ($52),"Mar 30, 2019",0.36,52,2019-03-30
2142,Sold,Hemba,0xd8e806,0.47Ξ ($90),"Jul 11, 2017",0.47,90,2017-07-11
2144,Sold,Hemba,0xa64bdd,0.11Ξ ($56),"Dec 11, 2017",0.11,56,2017-12-11
2146,Sold,5734076,11268359,"75Ξ ($159,499)","Apr 11, 2021",75,159499,2021-04-11
2147,Sold,0xc00c2b,8008732,0.18Ξ ($47),"Jul 01, 2017",0.18,47,2017-07-01
2149,Sold,5966219,461847,"25.97Ξ ($53,959)","Apr 08, 2021",25.97,53959,2021-04-08
2149,Sold,6689278,5966219,0.49Ξ ($68),"Mar 28, 2019",0.49,68,2019-03-28
2151,Sold,ross_VRO…,0x0452b1,0.59Ξ ($165),"Feb 18, 2020",0.59,165,2020-02-18
2151,Sold,coinduph…,ross_VRO…,0.33Ξ ($46),"Mar 28, 2019",0.33,46,2019-03-28
2151,Sold,Hemba,coinduph…,0.11Ξ ($55),"Apr 17, 2018",0.11,55,2018-04-17
2152,Sold,10734384,11268359,"16.50Ξ ($32,711)","Apr 08, 2021",16.5,32711,2021-04-08
2153,Sold,0x13816f,0x584cdf,"7.25Ξ ($13,234)","Feb 13, 2021",7.25,13234,2021-02-13
2153,Sold,Michel_M…,0x13816f,"4.79Ξ ($1,686)","Oct 05, 2020",4.79,1686,2020-10-05
2153,Sold,0x88bd20,Michel_M…,"4.50Ξ ($1,584)","Oct 05, 2020",4.5,1584,2020-10-05
2153,Sold,Carlini8,0x88bd20,"5.99Ξ ($2,076)","Oct 04, 2020",5.99,2076,2020-10-04
2153,Sold,MANAmans…,Carlini8,"5.89Ξ ($2,046)","Oct 03, 2020",5.89,2046,2020-10-03
2153,Sold,0xc69ae4,MANAmans…,"4.40Ξ ($1,581)","Sep 28, 2020",4.4,1581,2020-09-28
2153,Sold,Hemba,0xc69ae4,1.10Ξ ($225),"May 25, 2020",1.1,225,2020-05-25
2154,Sold,Pranksy,7478,1Ξ ($246),"Jul 09, 2020",1,246,2020-07-09
2154,Sold,ross_VRO…,Pranksy,0.60Ξ ($81),"Jan 04, 2020",0.6,81,2020-01-04
2154,Sold,Hemba,ross_VRO…,0.36Ξ ($50),"Mar 20, 2019",0.36,50,2019-03-20
2155,Sold,Hemba,0x8ca89c,0.12Ξ ($83),"Dec 14, 2017",0.12,83,2017-12-14
2156,Sold,0x4960c4…,jmg,"5.30Ξ ($5,882)","Jan 05, 2021",5.3,5882,2021-01-05
2156,Sold,Party,0x4960c4…,"5.30Ξ ($3,913)","Dec 31, 2020",5.3,3913,2020-12-31
2156,Sold,0xde0193,Party,"4Ξ ($2,931)","Dec 31, 2020",4,2931,2020-12-31
2158,Sold,aviexkak…,0xb5b84e,"21Ξ ($41,431)","Feb 21, 2021",21,41431,2021-02-21
2158,Sold,0x610cfc,🖕🖕🖕.e…,"5.80Ξ ($3,612)","Dec 22, 2020",5.8,3612,2020-12-22
2158,Sold,antunes_…,Slider92,"5.50Ξ ($1,895)","Oct 02, 2020",5.5,1895,2020-10-02
2158,Sold,Hemba,antunes_…,1.20Ξ ($241),"May 15, 2020",1.2,241,2020-05-15
2161,Sold,14522203,Snowfro,0.50Ξ ($80),"Feb 23, 2019",0.5,80,2019-02-23
2161,Sold,55241,0xdd975b,0.10Ξ ($37),"Nov 20, 2017",0.1,37,2017-11-20
2168,Sold,DT,0x0e9aed,"15Ξ ($31,761)","Apr 05, 2021",15,31761,2021-04-05
2168,Sold,LeafyGre…,DT,"5Ξ ($1,725)","Oct 02, 2020",5,1725,2020-10-02
2168,Sold,0x052564,LeafyGre…,2Ξ ($736),"Sep 11, 2020",2,736,2020-09-11
2168,Sold,Hemba,0xd8e806,0.46Ξ ($88),"Jul 11, 2017",0.46,88,2017-07-11
2170,Sold,GoWest23,0x13816f,"5.65Ξ ($1,999)","Sep 29, 2020",5.65,1999,2020-09-29
2170,Sold,Hemba,GoWest23,0.44Ξ ($76),"May 06, 2019",0.44,76,2019-05-06
2172,Sold,0x13816f,0x701f37,"8.75Ξ ($15,051)","Feb 15, 2021",8.75,15051,2021-02-15
2172,Sold,NeonNFT,0x13816f,"4.75Ξ ($1,603)","Oct 02, 2020",4.75,1603,2020-10-02
2172,Sold,GoWest23,NeonNFT,"5.25Ξ ($1,910)","Sep 28, 2020",5.25,1910,2020-09-28
2172,Sold,Hemba,GoWest23,0.43Ξ ($75),"May 06, 2019",0.43,75,2019-05-06
2173,Sold,MrNFT,0x3ee505,2.45Ξ ($847),"Sep 24, 2020",2.45,847,2020-09-24
2173,Sold,0x11c9a7,MrNFT,1.92Ξ ($656),"Sep 23, 2020",1.92,656,2020-09-23
2173,Sold,OnlyToas…,0x11c9a7,1.90Ξ ($703),"Sep 15, 2020",1.9,703,2020-09-15
2173,Sold,Pranksy,OnlyToas…,1.90Ξ ($709),"Sep 14, 2020",1.9,709,2020-09-14
2173,Sold,natealex,Pranksy,1.69Ξ ($637),"Sep 14, 2020",1.69,637,2020-09-14
2173,Sold,Hemba,natealex,0.60Ξ ($120),"May 14, 2020",0.6,120,2020-05-14
2177,Sold,0x2bcbbd,Cryptokk…,0.50Ξ ($84),"Apr 14, 2019",0.5,84,2019-04-14
2181,Sold,0xe45df5,Pixls,0.25Ξ ($25),"Dec 19, 2018",0.25,25,2018-12-19
2184,Sold,0xe96c3e,0x1c0700,"5.50Ξ ($3,999)","Dec 29, 2020",5.5,3999,2020-12-29
2184,Sold,Hemba,el,0.16Ξ ($44),"Aug 26, 2018",0.16,44,2018-08-26
2188,Sold,Theodora,0xa1f257,"8Ξ ($14,549)","Feb 14, 2021",8,14549,2021-02-14
2188,Sold,ChrisR,Theodora,0.87Ξ ($305),"Sep 06, 2020",0.87,305,2020-09-06
2188,Sold,0xb6be4d,Pranksy,0.90Ξ ($190),"May 19, 2020",0.9,190,2020-05-19
2190,Sold,0x577ebc,7348023,"45Ξ ($75,649)","Feb 06, 2021",45,75649,2021-02-06
2194,Sold,flipper_,0xcf6165,"5.24Ξ ($3,405)","Dec 27, 2020",5.24,3405,2020-12-27
2194,Sold,Theodora,flipper_,"4.84Ξ ($1,761)","Sep 28, 2020",4.84,1761,2020-09-28
2194,Sold,cryptosa…,Theodora,0.75Ξ ($265),"Sep 06, 2020",0.75,265,2020-09-06
2194,Sold,Hemba,cryptosa…,1.10Ξ ($225),"May 25, 2020",1.1,225,2020-05-25
2196,Sold,5734076,16037029,"55Ξ ($103,896)","Mar 13, 2021",55,103896,2021-03-13
2197,Sold,12322844,5772875,0.30Ξ ($58),"Jul 19, 2017",0.3,58,2017-07-19
2198,Sold,11004839,5615543,0.29Ξ ($71),"Sep 21, 2018",0.29,71,2018-09-21
2200,Sold,0x58164b,Kenney,0.08Ξ ($60),"May 07, 2018",0.08,60,2018-05-07
2202,Sold,0xc46280…,DANNY,"15Ξ ($3,047)","May 22, 2020",15,3047,2020-05-22
2202,Sold,0xcbd482,Spilliae…,1.50Ξ ($445),"Aug 08, 2017",1.5,445,2017-08-08
2205,Sold,0x88c500,0x59bb7b,"9.80Ξ ($17,984)","Feb 17, 2021",9.8,17984,2021-02-17
2205,Sold,Theodora,curating…,"6.84Ξ ($12,326)","Feb 13, 2021",6.84,12326,2021-02-13
2205,Sold,0x20e386,Theodora,1.20Ξ ($465),"Sep 13, 2020",1.2,465,2020-09-13
2207,Sold,0xd8e806,5772875,0.18Ξ ($55),"Aug 12, 2017",0.18,55,2017-08-12
2207,Sold,0x22160e,14215174,0.32Ξ ($72),"Jul 20, 2017",0.32,72,2017-07-20
2207,Sold,0xbc081c,2233870,0.30Ξ ($58),"Jul 19, 2017",0.3,58,2017-07-19
2209,Sold,0x0713a6,snowfro,"15Ξ ($9,341)","Dec 23, 2020",15,9341,2020-12-23
2209,Sold,antunes_…,0x0713a6,1.20Ξ ($230),"May 12, 2020",1.2,230,2020-05-12
2209,Sold,0xb6be4d,antunes_…,0.90Ξ ($115),"Mar 14, 2020",0.9,115,2020-03-14
2210,Sold,TokenAng…,0x83e0e1,"24Ξ ($46,032)","Feb 22, 2021",24,46032,2021-02-22
2210,Sold,Hemba,TokenAng…,0.52Ξ ($113),"Aug 02, 2019",0.52,113,2019-08-02
2212,Sold,CPyrc,0x033ee7,"3.49Ξ ($1,207)","Sep 24, 2020",3.49,1207,2020-09-24
2212,Sold,0x48db19,0x1d45f1,0.90Ξ ($386),"Aug 16, 2020",0.9,386,2020-08-16
2213,Sold,0xef784c,0x905f48,"54.99Ξ ($100,495)","Mar 29, 2021",54.99,100495,2021-03-29
2213,Sold,Pranksy,0xef784c,"45Ξ ($81,066)","Mar 11, 2021",45,81066,2021-03-11
2213,Sold,0xc5faf1,Pranksy,"40Ξ ($63,891)","Mar 03, 2021",40,63891,2021-03-03
2216,Sold,0x0a4eaf…,Cyborg,0.24Ξ ($69),"Aug 15, 2017",0.24,69,2017-08-15
2216,Sold,0xbc081c,0x0a4eaf…,0.30Ξ ($68),"Jul 24, 2017",0.3,68,2017-07-24
2217,Sold,wrappped…,0x281869,"6Ξ ($8,116)","Jan 26, 2021",6,8116,2021-01-26
2217,Sold,Hemba,wrappped…,0.28Ξ ($127),"Jul 26, 2018",0.28,127,2018-07-26
2220,Sold,dereklau…,0x2207a7,"28.90Ξ ($53,004)","Mar 18, 2021",28.9,53004,2021-03-18
2220,Sold,pelvis.e…,dereklau…,"24.79Ξ ($47,560)","Feb 22, 2021",24.79,47560,2021-02-22
2220,Sold,0x33c265,pelvis.e…,"12.50Ξ ($24,586)","Feb 19, 2021",12.5,24586,2021-02-19
2220,Sold,0x19f233,0x33c265,"10Ξ ($19,164)","Feb 18, 2021",10,19164,2021-02-18
2221,Sold,0x169560,6664633,"21.75Ξ ($39,289)","Mar 11, 2021",21.75,39289,2021-03-11
2221,Sold,0x07c5ea,1480032,"21.25Ξ ($39,866)","Feb 22, 2021",21.25,39866,2021-02-22
2221,Sold,0x0873fc,509418,"20.21Ξ ($38,009)","Feb 22, 2021",20.21,38009,2021-02-22
2222,Sold,0xf1b658,0x6210b9,"14Ξ ($24,547)","Feb 09, 2021",14,24547,2021-02-09
2222,Sold,0x88e759,0xf1b658,"11.22Ξ ($16,988)","Feb 03, 2021",11.22,16988,2021-02-03
2223,Sold,Pranksy,0xeed4ab,"34.99Ξ ($67,272)","Mar 13, 2021",34.99,67272,2021-03-13
2223,Sold,0x67edd0,Pranksy,"30Ξ ($54,247)","Mar 12, 2021",30,54247,2021-03-12
2223,Sold,0x491be7,0x67edd0,"12.50Ξ ($22,487)","Feb 16, 2021",12.5,22487,2021-02-16
2223,Sold,ross_VRO…,0x491be7,"7Ξ ($2,432)","Oct 03, 2020",7,2432,2020-10-03
2223,Sold,Pranksy,ross_VRO…,1.49Ξ ($300),"May 16, 2020",1.49,300,2020-05-16
2223,Sold,0x00d7c9,Pranksy,0.40Ξ ($109),"Jun 20, 2019",0.4,109,2019-06-20
2225,Sold,0xd8e806,9876623,0.20Ξ ($103),"Dec 11, 2017",0.2,103,2017-12-11
2227,Sold,Pranksy,BlackKet…,0.70Ξ ($91),"Jan 01, 2020",0.7,91,2020-01-01
2227,Sold,0x00d7c9,Pranksy,0.40Ξ ($109),"Jun 20, 2019",0.4,109,2019-06-20
2228,Sold,NeonNFT,diamantz…,"2.90Ξ ($1,011)","Sep 26, 2020",2.9,1011,2020-09-26
2228,Sold,ross_VRO…,NeonNFT,2.75Ξ ($949),"Sep 25, 2020",2.75,949,2020-09-25
2228,Sold,Nissla,ross_VRO…,2.65Ξ ($931),"Sep 24, 2020",2.65,931,2020-09-24
2228,Sold,ioncloud,Nissla,2.49Ξ ($862),"Sep 24, 2020",2.49,862,2020-09-24
2228,Sold,Hemba,ioncloud,1.10Ξ ($223),"May 25, 2020",1.1,223,2020-05-25
2230,Sold,cryptosa…,0x3db26e,0.83Ξ ($296),"Sep 09, 2020",0.83,296,2020-09-09
2230,Sold,Hemba,cryptosa…,1.10Ξ ($225),"May 25, 2020",1.1,225,2020-05-25
2231,Sold,1278319,301367,"10.95Ξ ($20,046)","Feb 13, 2021",10.95,20046,2021-02-13
2231,Sold,10734384,1278319,"5.50Ξ ($1,937)","Oct 06, 2020",5.5,1937,2020-10-06
2232,Sold,Hemba,0x7a341c,0.21Ξ ($60),"Jul 02, 2017",0.21,60,2017-07-02
2233,Sold,2233870,45688,0.31Ξ ($69),"Jul 18, 2017",0.31,69,2017-07-18
2235,Sold,0x13816f,0x0ebd1a,"11.88Ξ ($20,997)","Feb 17, 2021",11.88,20997,2021-02-17
2235,Sold,Alex3422,0x13816f,"5.70Ξ ($2,016)","Sep 29, 2020",5.7,2016,2020-09-29
2235,Sold,GoWest23,Alex3422,"5.35Ξ ($1,885)","Sep 29, 2020",5.35,1885,2020-09-29
2235,Sold,Hemba,GoWest23,0.50Ξ ($67),"Jan 04, 2020",0.5,67,2020-01-04
2237,Sold,1267615,3548383,"75Ξ ($132,872)","Mar 18, 2021",75,132872,2021-03-18
2237,Sold,5734076,1267615,"37Ξ ($69,388)","Mar 14, 2021",37,69388,2021-03-14
2238,Sold,0xb6be4d,0xc11192,"13.40Ξ ($25,691)","Feb 20, 2021",13.4,25691,2021-02-20
2238,Sold,0x0d7794,0xb6be4d,"12.80Ξ ($24,334)","Feb 18, 2021",12.8,24334,2021-02-18
2238,Sold,0x4202c5,0x0d7794,"12Ξ ($22,877)","Feb 18, 2021",12,22877,2021-02-18
2238,Sold,0xc155f9,0x4202c5,"10.88Ξ ($19,694)","Feb 17, 2021",10.88,19694,2021-02-17
2238,Sold,GoWest23,0xc155f9,"5.17Ξ ($1,829)","Sep 29, 2020",5.17,1829,2020-09-29
2238,Sold,Hemba,GoWest23,0.44Ξ ($77),"May 06, 2019",0.44,77,2019-05-06
2239,Sold,0xcbd482,7823584,0.20Ξ ($57),"Jul 02, 2017",0.2,57,2017-07-02
2241,Sold,0x0713a6,cryptosa…,"4.90Ξ ($1,753)","Sep 28, 2020",4.9,1753,2020-09-28
2241,Sold,Hemba,0x0713a6,0.61Ξ ($123),"May 14, 2020",0.61,123,2020-05-14
2242,Sold,0x2b8e9d,0xc06749,"24.90Ξ ($35,986)","Feb 27, 2021",24.9,35986,2021-02-27
2242,Sold,YOTTABYT…,0x2b8e9d,"6.90Ξ ($8,689)","Jan 23, 2021",6.9,8689,2021-01-23
2242,Sold,evkort,YOTTABYT…,"4Ξ ($2,393)","Nov 23, 2020",4,2393,2020-11-23
2242,Sold,evkort,Crypto_P…,0.10Ξ ($39),"Oct 12, 2020",0.1,39,2020-10-12
2242,Sold,coinduph…,evkort,"5.70Ξ ($2,212)","Oct 12, 2020",5.7,2212,2020-10-12
2242,Sold,0x8234be,coinduph…,0.15Ξ ($91),"Apr 21, 2018",0.15,91,2018-04-21
2245,Sold,Kataster…,0x8d9568,"25Ξ ($45,657)","Mar 19, 2021",25,45657,2021-03-19
2245,Sold,Hemba,Kataster…,0.48Ξ ($64),"Dec 22, 2019",0.48,64,2019-12-22
2249,Sold,shilpixe…,0x1f8add,"9.50Ξ ($1,848)","Apr 26, 2020",9.5,1848,2020-04-26
2249,Sold,0xd8e806,shilpixe…,1.07Ξ ($372),"Aug 28, 2017",1.07,372,2017-08-28
2249,Sold,0x00bd3a,0xd8e806,1.49Ξ ($252),"Jul 15, 2017",1.49,252,2017-07-15
2249,Sold,0x5462de,0x00bd3a,1Ξ ($269),"Jul 04, 2017",1,269,2017-07-04
2250,Sold,6689278,7001614,"22.50Ξ ($40,723)","Mar 11, 2021",22.5,40723,2021-03-11
2253,Sold,MrTpunks…,0x75bb8e,"85Ξ ($151,223)","Feb 22, 2021",85,151223,2021-02-22
2253,Sold,0xa3cb30,ManOverb…,"19.50Ξ ($6,649)","Oct 07, 2020",19.5,6649,2020-10-07
2254,Sold,755965,5091805,"41Ξ ($74,930)","Mar 20, 2021",41,74930,2021-03-20
2259,Sold,1742511,393680,1.99Ξ ($753),"Sep 15, 2020",1.99,753,2020-09-15
2259,Sold,5331586,6781763,0.24Ξ ($66),"Jul 03, 2017",0.24,66,2017-07-03
2260,Sold,0xfb077c,Kinchasa,0.80Ξ ($131),"May 04, 2019",0.8,131,2019-05-04
2261,Sold,kyloren,0x42f7c5,"7Ξ ($9,344)","Jan 26, 2021",7,9344,2021-01-26
2261,Sold,Carlini8,kyloren,"5.20Ξ ($1,840)","Sep 29, 2020",5.2,1840,2020-09-29
2261,Sold,0x6fb180,Carlini8,"5.10Ξ ($1,852)","Sep 28, 2020",5.1,1852,2020-09-28
2261,Sold,Carlini8,0x6fb180,2.50Ξ ($914),"Sep 16, 2020",2.5,914,2020-09-16
2261,Sold,Hemba,Carlini8,1.30Ξ ($261),"May 26, 2020",1.3,261,2020-05-26
2263,Sold,9399070,942439,"14.90Ξ ($29,396)","Feb 21, 2021",14.9,29396,2021-02-21
2263,Sold,13401139,14175872,"5.84Ξ ($10,452)","Feb 11, 2021",5.84,10452,2021-02-11
2264,Sold,13401139,1337515,"38Ξ ($78,547)","Apr 08, 2021",38,78547,2021-04-08
2267,Sold,0xcc7c33,9876623,0.35Ξ ($113),"Aug 21, 2017",0.35,113,2017-08-21
2269,Sold,0xcc7c33,BlackKet…,0.79Ξ ($102),"Jan 01, 2020",0.79,102,2020-01-01
2276,Sold,0x07c5ea,0x649b84,"45Ξ ($70,980)","Feb 25, 2021",45,70980,2021-02-25
2276,Sold,0x577ebc,Michel_M…,"23Ξ ($37,967)","Feb 05, 2021",23,37967,2021-02-05
2280,Sold,ross_VRO…,whiterab…,0.99Ξ ($368),"Sep 10, 2020",0.99,368,2020-09-10
2280,Sold,0xe45df5,ross_VRO…,0.59Ξ ($101),"Jan 17, 2020",0.59,101,2020-01-17
2280,Sold,0x0a4eaf…,0xe45df5,0.30Ξ ($71),"Jul 09, 2017",0.3,71,2017-07-09
2280,Sold,Cyborg,0x0a4eaf…,0.24Ξ ($62),"Jul 06, 2017",0.24,62,2017-07-06
2281,Sold,donated.…,0xbb9445,"50Ξ ($79,398)","Mar 25, 2021",50,79398,2021-03-25
2281,Sold,0x577ebc,donated.…,"59.99Ξ ($108,626)","Mar 12, 2021",59.99,108626,2021-03-12
2282,Sold,Gilzar,valdon,"6Ξ ($2,183)","Sep 28, 2020",6,2183,2020-09-28
2282,Sold,Hemba,CPyrc,1.10Ξ ($225),"May 24, 2020",1.1,225,2020-05-24
2285,Sold,Cyborg,spider33…,0.28Ξ ($57),"Jul 29, 2017",0.28,57,2017-07-29
2286,Sold,cryptosa…,Japone42…,"5.05Ξ ($1,991)","Oct 12, 2020",5.05,1991,2020-10-12
2286,Sold,_K_A_M_I…,cryptosa…,1.29Ξ ($308),"Jun 03, 2020",1.29,308,2020-06-03
2286,Sold,0x052564,_K_A_M_I…,1.50Ξ ($321),"May 28, 2020",1.5,321,2020-05-28
2286,Sold,Hemba,0xd8e806,0.38Ξ ($72),"Jul 11, 2017",0.38,72,2017-07-11
2287,Sold,Hemba,0xd8e806,0.38Ξ ($84),"Jul 12, 2017",0.38,84,2017-07-12
2289,Sold,0x052564,TJ2010,"5Ξ ($1,882)","Sep 15, 2020",5,1882,2020-09-15
2289,Sold,Hemba,0xd8e806,0.38Ξ ($71),"Jul 11, 2017",0.38,71,2017-07-11
2290,Sold,0xc69ae4,0x727646,"2.88Ξ ($1,095)","Sep 20, 2020",2.88,1095,2020-09-20
2290,Sold,Hemba,0xc69ae4,1.10Ξ ($225),"May 25, 2020",1.1,225,2020-05-25
2291,Sold,0x13816f,0x28a908,"7.14Ξ ($12,824)","Feb 13, 2021",7.14,12824,2021-02-13
2291,Sold,0x3ba9cd,0x13816f,"3.05Ξ ($1,078)","Sep 27, 2020",3.05,1078,2020-09-27
2291,Sold,Carlini8,0x3ba9cd,2Ξ ($678),"Sep 23, 2020",2,678,2020-09-23
2291,Sold,SharkWha…,Carlini8,1.49Ξ ($560),"Sep 14, 2020",1.49,560,2020-09-14
2291,Sold,Hemba,SharkWha…,1.30Ξ ($264),"May 27, 2020",1.3,264,2020-05-27
2292,Sold,SharkWha…,Kcirtapc…,1.49Ξ ($570),"Sep 14, 2020",1.49,570,2020-09-14
2292,Sold,Hemba,SharkWha…,1.30Ξ ($264),"May 27, 2020",1.3,264,2020-05-27
2294,Sold,0x65ba4f,16714708,"110Ξ ($165,878)","Feb 25, 2021",110,165878,2021-02-25
2294,Sold,0x365e35,6666831,"60Ξ ($98,078)","Feb 24, 2021",60,98078,2021-02-24
2297,Sold,509418,7077465,"21.49Ξ ($41,192)","Feb 22, 2021",21.49,41192,2021-02-22
2297,Sold,16033653,509418,"20Ξ ($38,499)","Feb 21, 2021",20,38499,2021-02-21
2297,Sold,22272,16033653,0.10Ξ ($46),"Dec 03, 2017",0.1,46,2017-12-03
2301,Sold,shilpixe…,qiwave,"5Ξ ($1,098)","Jun 27, 2020",5,1098,2020-06-27
2302,Sold,0x052564,mrsee.et…,"27Ξ ($38,940)","Feb 27, 2021",27,38940,2021-02-27
2302,Sold,Cyborg,0xd8e806,0.28Ξ ($53),"Jul 28, 2017",0.28,53,2017-07-28
2303,Sold,CPyrc,0xc5b4e3,2.45Ξ ($935),"Sep 17, 2020",2.45,935,2020-09-17
2303,Sold,Sylveste…,CPyrc,1.99Ξ ($727),"Sep 16, 2020",1.99,727,2020-09-16
2303,Sold,PM_disco…,Sylveste…,1.40Ξ ($510),"Sep 11, 2020",1.4,510,2020-09-11
2303,Sold,0x0553de,PM_disco…,1.19Ξ ($293),"Jul 09, 2020",1.19,293,2020-07-09
2303,Sold,0x3a4930,0x0553de,1.29Ξ ($325),"Jun 02, 2020",1.29,325,2020-06-02
2303,Sold,TweetyPi…,0x3a4930,1.45Ξ ($296),"May 25, 2020",1.45,296,2020-05-25
2303,Sold,Hemba,TweetyPi…,1Ξ ($199),"May 21, 2020",1,199,2020-05-21
2304,Sold,licorne.…,sov,0.36Ξ ($82),"Jul 12, 2017",0.36,82,2017-07-12
2306,Sold,0xbe7516,0x483ec3,"125Ξ ($217,171)","Feb 11, 2021",125,217171,2021-02-11
2306,Sold,Pranksy,gaus,"53Ξ ($18,372)","Sep 24, 2020",53,18372,2020-09-24
2306,Sold,Snowfro,Pranksy,"49Ξ ($18,887)","Sep 18, 2020",49,18887,2020-09-18
2307,Sold,Hemba,0xe0e106,0.41Ξ ($84),"Jul 13, 2017",0.41,84,2017-07-13
2308,Sold,0x701f37,0xef6d69,"19.50Ξ ($34,038)","Mar 08, 2021",19.5,34038,2021-03-08
2308,Sold,MrNFT,0x568cf5,"5.89Ξ ($2,139)","Sep 28, 2020",5.89,2139,2020-09-28
2308,Sold,GoWest23,MrNFT,"4.95Ξ ($1,800)","Sep 28, 2020",4.95,1800,2020-09-28
2308,Sold,Blaze310,GoWest23,0.35Ξ ($61),"May 06, 2019",0.35,61,2019-05-06
2308,Sold,Bendicio…,Blaze310,0.25Ξ ($26),"Dec 18, 2018",0.25,26,2018-12-18
2308,Sold,Hemba,Bendicio…,0.41Ξ ($83),"Jul 26, 2017",0.41,83,2017-07-26
2309,Sold,natealex,0x93db36,1.95Ξ ($752),"Sep 20, 2020",1.95,752,2020-09-20
2309,Sold,Hemba,natealex,1.30Ξ ($265),"May 27, 2020",1.3,265,2020-05-27
2310,Sold,0xae4d83,0x48c85c,"31Ξ ($60,643)","Feb 19, 2021",31,60643,2021-02-19
2310,Sold,Slats_et…,0xae4d83,"29.90Ξ ($54,078)","Feb 14, 2021",29.9,54078,2021-02-14
2310,Sold,Dude_Nak…,Slats_et…,"4.95Ξ ($1,021)","May 27, 2020",4.95,1021,2020-05-27
2310,Sold,0x58164b,Dude_Nak…,0.10Ξ ($53),"Apr 18, 2018",0.1,53,2018-04-18
2313,Sold,0x48c85c,0x024bcb,"19.95Ξ ($39,718)","Feb 20, 2021",19.95,39718,2021-02-20
2313,Sold,0x3e17fa,0x48c85c,"10.50Ξ ($19,166)","Feb 16, 2021",10.5,19166,2021-02-16
2313,Sold,CPyrc,0x3e17fa,"4.49Ξ ($1,553)","Sep 24, 2020",4.49,1553,2020-09-24
2313,Sold,0x20e386,CPyrc,1.20Ξ ($465),"Sep 13, 2020",1.2,465,2020-09-13
2315,Sold,13015780,2523497,"6.61Ξ ($8,471)","Jan 26, 2021",6.61,8471,2021-01-26
2315,Sold,1742511,13015780,1.27Ξ ($254),"May 26, 2020",1.27,254,2020-05-26
2315,Sold,12322844,6781763,0.30Ξ ($68),"Jul 20, 2017",0.3,68,2017-07-20
2317,Sold,0x13816f,0x9e10cf,"10.80Ξ ($19,807)","Feb 17, 2021",10.8,19807,2021-02-17
2317,Sold,Loopify,0x13816f,"4Ξ ($1,433)","Sep 28, 2020",4,1433,2020-09-28
2317,Sold,0x11c9a7,Loopify,"3.70Ξ ($1,319)","Sep 28, 2020",3.7,1319,2020-09-28
2317,Sold,0xe5e771,0x11c9a7,"3.50Ξ ($1,258)","Sep 28, 2020",3.5,1258,2020-09-28
2317,Sold,MrNFT,0xe5e771,2.14Ξ ($731),"Sep 23, 2020",2.14,731,2020-09-23
2317,Sold,zazpower…,MrNFT,1.85Ξ ($635),"Sep 22, 2020",1.85,635,2020-09-22
2317,Sold,0xe0b432,zazpower…,1.90Ξ ($697),"Sep 15, 2020",1.9,697,2020-09-15
2319,Sold,55241,7435267,0.05Ξ ($26),"May 28, 2018",0.05,26,2018-05-28
2320,Sold,0xaae8c5,azkaban,"4.49Ξ ($5,808)","Jan 10, 2021",4.49,5808,2021-01-10
2320,Sold,Slats_et…,0xaae8c5,"4Ξ ($4,907)","Jan 09, 2021",4,4907,2021-01-09
2320,Sold,Pranksy,Slats_et…,1.99Ξ ($410),"May 27, 2020",1.99,410,2020-05-27
2320,Sold,0xb6be4d,Pranksy,1Ξ ($214),"May 20, 2020",1,214,2020-05-20
2321,Sold,Pixls,0x3e4c98,0.19Ξ ($56),"Sep 01, 2018",0.19,56,2018-09-01
2321,Sold,Hemba,Pixls,0.11Ξ ($30),"Aug 26, 2018",0.11,30,2018-08-26
2322,Sold,Hemba,Kenney,0.15Ξ ($57),"Apr 04, 2018",0.15,57,2018-04-04
2324,Sold,0x577ebc,BlackKet…,"28.99Ξ ($52,860)","Mar 20, 2021",28.99,52860,2021-03-20
2325,Sold,0x007508,15580719,"95Ξ ($197,227)","Apr 09, 2021",95,197227,2021-04-09
2326,Sold,0x382681,0x73e788,"15Ξ ($27,684)","Feb 17, 2021",15,27684,2021-02-17
2326,Sold,0x87e225,0x382681,0.96Ξ ($200),"Sep 17, 2019",0.96,200,2019-09-17
2326,Sold,Pranksy,0x87e225,0.65Ξ ($129),"Sep 16, 2019",0.65,129,2019-09-16
2326,Sold,0x00d7c9,Pranksy,0.40Ξ ($109),"Jun 20, 2019",0.4,109,2019-06-20
2327,Sold,3van.eth,digitalo…,"6Ξ ($7,526)","Jan 07, 2021",6,7526,2021-01-07
2327,Sold,evkort,0x34cdf7,0.10Ξ ($38),"Oct 13, 2020",0.1,38,2020-10-13
2327,Sold,H6A5-0x,evkort,"6.25Ξ ($2,403)","Oct 13, 2020",6.25,2403,2020-10-13
2328,Sold,0x62bdc6,0x5fbee9,"19.69Ξ ($41,048)","Apr 09, 2021",19.69,41048,2021-04-09
2328,Sold,gr8wxl,0x62bdc6,"17Ξ ($35,139)","Apr 08, 2021",17,35139,2021-04-08
2328,Sold,0xd8e806,gr8wxl,0.22Ξ ($66),"Sep 10, 2017",0.22,66,2017-09-10
2328,Sold,Hemba,0xd8e806,0.41Ξ ($92),"Jul 12, 2017",0.41,92,2017-07-12
2329,Sold,0xc352b5,0xba19ba,"140Ξ ($259,511)","Feb 12, 2021",140,259511,2021-02-12
2329,Sold,Dude_Nak…,0xc352b5,"11Ξ ($2,469)","Feb 10, 2020",11,2469,2020-02-10
2329,Sold,0x58164b,Dude_Nak…,0.52Ξ ($323),"Apr 22, 2018",0.52,323,2018-04-22
2329,Sold,Cyborg,0x58164b,2.25Ξ ($437),"Jul 19, 2017",2.25,437,2017-07-19
2329,Sold,0xc5d739,Cyborg,2.50Ξ ($710),"Jul 02, 2017",2.5,710,2017-07-02
2331,Sold,Hemba,0x655d36,0.41Ξ ($92),"Jul 24, 2017",0.41,92,2017-07-24
2332,Sold,Hemba,snowfro,0.22Ξ ($20),"Dec 06, 2018",0.22,20,2018-12-06
2333,Sold,3van.eth,0xf51d05,"14.75Ξ ($27,004)","Feb 14, 2021",14.75,27004,2021-02-14
2333,Sold,0xa3cb30,3van.eth,"10.50Ξ ($19,081)","Feb 13, 2021",10.5,19081,2021-02-13
2335,Sold,Hemba,yupyupyu…,0.13Ξ ($38),"Aug 18, 2018",0.13,38,2018-08-18
2336,Sold,MBK,0x23b50b,"100Ξ ($180,729)","Mar 12, 2021",100,180729,2021-03-12
2336,Sold,0xa3cb30,MBK,"10Ξ ($3,633)","Oct 09, 2020",10,3633,2020-10-09
2337,Sold,Hemba,0x2478c4,0.41Ξ ($89),"Jul 21, 2017",0.41,89,2017-07-21
2338,Sold,0x4dcaf3,2994628,3.50Ξ ($458),"Nov 20, 2018",3.5,458,2018-11-20
2338,Sold,0x00bd3a,5098227,2.49Ξ ($600),"Jul 07, 2017",2.49,600,2017-07-07
2338,Sold,0x5462de,48442,2.50Ξ ($673),"Jul 04, 2017",2.5,673,2017-07-04
2339,Sold,0x052564,0x_NFT,"6Ξ ($2,176)","Sep 28, 2020",6,2176,2020-09-28
2339,Sold,Hemba,0xd8e806,0.41Ξ ($78),"Jul 11, 2017",0.41,78,2017-07-11
2340,Sold,0x251900,0x7b89ce,"20.50Ξ ($35,989)","Feb 22, 2021",20.5,35989,2021-02-22
2340,Sold,0x1a96af,ArtBlock…,0.62Ξ ($123),"May 14, 2020",0.62,123,2020-05-14
2342,Sold,renaissa…,0x32dd07,"24.90Ξ ($46,759)","Feb 22, 2021",24.9,46759,2021-02-22
2342,Sold,MadMax,renaissa…,"20.40Ξ ($39,393)","Feb 21, 2021",20.4,39393,2021-02-21
2342,Sold,panch,MadMax,"19.40Ξ ($37,462)","Feb 21, 2021",19.4,37462,2021-02-21
2342,Sold,Hemba,panch,0.11Ξ ($72),"Dec 12, 2017",0.11,72,2017-12-12
2343,Sold,0x00d7c9,0xe2c558,0.10Ξ ($136),"Jan 14, 2018",0.1,136,2018-01-14
2344,Sold,55241,9876623,0.05Ξ ($28),"May 29, 2018",0.05,28,2018-05-29
2346,Sold,Hemba,Kenney,0.15Ξ ($57),"Apr 04, 2018",0.15,57,2018-04-04
2347,Sold,Hemba,0xfff1b1,0.42Ξ ($128),"Sep 04, 2017",0.42,128,2017-09-04
2348,Sold,6689278,6586740,"20.50Ξ ($36,466)","Mar 11, 2021",20.5,36466,2021-03-11
2350,Sold,shilpixe…,0xbec69d,"22.50Ξ ($46,377)","Apr 08, 2021",22.5,46377,2021-04-08
2351,Sold,Pranksy,blockwar…,1.20Ξ ($465),"Aug 26, 2020",1.2,465,2020-08-26
2351,Sold,cielxnoe…,Pranksy,0.90Ξ ($159),"Jan 18, 2020",0.9,159,2020-01-18
2351,Sold,Hemba,cielxnoe…,0.13Ξ ($90),"Dec 16, 2017",0.13,90,2017-12-16
2352,Sold,Hemba,0x8adbff,0.14Ξ ($94),"Dec 13, 2017",0.14,94,2017-12-13
2353,Sold,6666831,5529929,"45Ξ ($94,516)","Apr 05, 2021",45,94516,2021-04-05
2353,Sold,52816,6666831,"22Ξ ($42,237)","Feb 19, 2021",22,42237,2021-02-19
2354,Sold,0x46b4fa,0xcc52d4,"26Ξ ($37,763)","Feb 23, 2021",26,37763,2021-02-23
2354,Sold,0xf4a775,0x46b4fa,"5.75Ξ ($8,706)","Feb 03, 2021",5.75,8706,2021-02-03
2354,Sold,Hemba,0xf4a775,0.08Ξ ($35),"Dec 03, 2017",0.08,35,2017-12-03
2355,Sold,8533182,7127368,0.06Ξ ($43),"Dec 22, 2017",0.06,43,2017-12-22
2358,Sold,0xb4bb41,5786847,"21Ξ ($43,407)","Apr 08, 2021",21,43407,2021-04-08
2358,Sold,0xac4315,11844417,"17.50Ξ ($33,648)","Apr 01, 2021",17.5,33648,2021-04-01
2358,Sold,0xa3cb30,11289365,"19Ξ ($35,027)","Mar 30, 2021",19,35027,2021-03-30
2363,Sold,seel.eth,0x2649c4,"10Ξ ($18,172)","Feb 14, 2021",10,18172,2021-02-14
2363,Sold,0xcc7c33,seel.eth,"8.44Ξ ($15,345)","Feb 14, 2021",8.44,15345,2021-02-14
2365,Sold,0xcc7c33,14757407,0.77Ξ ($122),"Apr 10, 2020",0.77,122,2020-04-10
2366,Sold,3769926,8031631,"19.50Ξ ($33,991)","Mar 08, 2021",19.5,33991,2021-03-08
2366,Sold,13401139,3769926,"8.88Ξ ($16,057)","Feb 14, 2021",8.88,16057,2021-02-14
2367,Sold,5734076,970122,"78Ξ ($129,737)","Mar 23, 2021",78,129737,2021-03-23
2368,Sold,0xcc7c33,14215174,2.29Ξ ($436),"Jul 11, 2017",2.29,436,2017-07-11
2373,Sold,ChrisR,TokenAng…,2.49Ξ ($501),"May 26, 2020",2.49,501,2020-05-26
2373,Sold,0x00d7c9,ChrisR,0.41Ξ ($121),"Jun 21, 2019",0.41,121,2019-06-21
2374,Sold,0x033ee7,0xf4493a,"4.63Ξ ($6,105)","Jan 24, 2021",4.63,6105,2021-01-24
2374,Sold,7478,0x033ee7,"3Ξ ($1,037)","Sep 24, 2020",3,1037,2020-09-24
2374,Sold,HEDBIG,7478,0.50Ξ ($96),"Feb 02, 2020",0.5,96,2020-02-02
2374,Sold,Hemba,HEDBIG,0.10Ξ ($28),"Aug 15, 2018",0.1,28,2018-08-15
2376,Sold,Hemba,0x6bf36c,0.10Ξ ($19),"Sep 11, 2018",0.1,19,2018-09-11
2377,Sold,CPyrc,0x1edd1f,"5.99Ξ ($2,236)","Oct 15, 2020",5.99,2236,2020-10-15
2377,Sold,Michel_M…,CPyrc,"4.75Ξ ($1,620)","Oct 07, 2020",4.75,1620,2020-10-07
2377,Sold,0x3ba9cd,Michel_M…,"6.50Ξ ($2,299)","Sep 29, 2020",6.5,2299,2020-09-29
2377,Sold,Carlini8,0x3ba9cd,"4Ξ ($1,390)","Sep 24, 2020",4,1390,2020-09-24
2377,Sold,Alex3422,Carlini8,2.50Ξ ($513),"May 22, 2020",2.5,513,2020-05-22
2377,Sold,0xbfa319,Alex3422,1.18Ξ ($170),"Jan 13, 2020",1.18,170,2020-01-13
2377,Sold,Hemba,0xbfa319,0.15Ξ ($44),"Sep 01, 2018",0.15,44,2018-09-01
2378,Sold,0xbf6ccf,azkaban,"4.70Ξ ($4,613)","Jan 11, 2021",4.7,4613,2021-01-11
2378,Sold,NFTinTin,0xbf6ccf,"4.20Ξ ($2,616)","Dec 22, 2020",4.2,2616,2020-12-22
2378,Sold,Pixls,NFTinTin,0.32Ξ ($34),"Feb 05, 2019",0.32,34,2019-02-05
2378,Sold,Hemba,Pixls,0.10Ξ ($30),"Sep 02, 2018",0.1,30,2018-09-02
2379,Sold,trislit,0x3f1724,0.35Ξ ($103),"Jun 27, 2019",0.35,103,2019-06-27
2379,Sold,Hemba,trislit,0.11Ξ ($25),"Sep 20, 2018",0.11,25,2018-09-20
2381,Sold,0xf5c1d5,4484557,"35Ξ ($75,262)","Apr 11, 2021",35,75262,2021-04-11
2381,Sold,0x54d7f9,16105941,"29.50Ξ ($49,315)","Mar 07, 2021",29.5,49315,2021-03-07
2381,Sold,0x577ebc,5560313,"19.50Ξ ($37,093)","Feb 18, 2021",19.5,37093,2021-02-18
2384,Sold,Hemba,Kenney,0.16Ξ ($184),"Jan 20, 2018",0.16,184,2018-01-20
2386,Sold,TokenAng…,MrTpunks,"77Ξ ($15,313)","May 21, 2020",77,15313,2020-05-21
2386,Sold,0x4dcaf3,TokenAng…,"30Ξ ($5,914)","Apr 26, 2020",30,5914,2020-04-26
2386,Sold,straybit…,0x4dcaf3,4.25Ξ ($826),"Jul 19, 2017",4.25,826,2017-07-19
2387,Sold,Hemba,0xf4a775,0.11Ξ ($51),"Dec 04, 2017",0.11,51,2017-12-04
2388,Sold,0x0503ed,0x49ab66,"5.50Ξ ($6,972)","Jan 27, 2021",5.5,6972,2021-01-27
2388,Sold,devboi,0x0503ed,"2.99Ξ ($4,237)","Jan 25, 2021",2.99,4237,2021-01-25
2388,Sold,Hemba,devboi,0.15Ξ ($77),"Apr 16, 2018",0.15,77,2018-04-16
2389,Sold,Pranksy,AZonneve…,1.49Ξ ($303),"May 25, 2020",1.49,303,2020-05-25
2389,Sold,0x00d7c9,Pranksy,0.40Ξ ($109),"Jun 20, 2019",0.4,109,2019-06-20
2390,Sold,TokenAng…,0x5e43e1,"31.50Ξ ($51,214)","Feb 25, 2021",31.5,51214,2021-02-25
2390,Sold,0xf1b658,TokenAng…,"17Ξ ($33,112)","Feb 19, 2021",17,33112,2021-02-19
2390,Sold,0x05dfd4,0xf1b658,"15Ξ ($28,665)","Feb 19, 2021",15,28665,2021-02-19
2390,Sold,0xb44969,0x05dfd4,"16.90Ξ ($32,513)","Feb 18, 2021",16.9,32513,2021-02-18
2390,Sold,pinkiepi…,0xbf6ccf,"5.30Ξ ($3,239)","Dec 23, 2020",5.3,3239,2020-12-23
2390,Sold,0x087173,2pac,"3.97Ξ ($2,303)","Dec 14, 2020",3.97,2303,2020-12-14
2390,Sold,2pac,0x087173,"2.81Ξ ($1,300)","Nov 14, 2020",2.81,1300,2020-11-14
2390,Sold,0xa3cb30,0x257e2b,"6.50Ξ ($2,218)","Oct 07, 2020",6.5,2218,2020-10-07
2392,Sold,0xe96c3e,Ravachol,0.65Ξ ($127),"Apr 27, 2020",0.65,127,2020-04-27
2392,Sold,Hemba,el,0.11Ξ ($30),"Aug 26, 2018",0.11,30,2018-08-26
2394,Sold,0xf1b658,0x29b1b2,"47Ξ ($91,559)","Feb 21, 2021",47,91559,2021-02-21
2394,Sold,Pranksy,0xf1b658,"29.69Ξ ($53,996)","Feb 15, 2021",29.69,53996,2021-02-15
2394,Sold,0x577ebc,Pranksy,"29.25Ξ ($47,043)","Feb 04, 2021",29.25,47043,2021-02-04
2395,Sold,0x577ebc,BlackKet…,"27.99Ξ ($51,036)","Mar 20, 2021",27.99,51036,2021-03-20
2396,Sold,7270967,9059630,"80Ξ ($165,362)","Apr 08, 2021",80,165362,2021-04-08
2396,Sold,11004839,7270967,"41Ξ ($67,474)","Mar 06, 2021",41,67474,2021-03-06
2397,Sold,Pranksy,Kataster…,0.45Ξ ($66),"Dec 10, 2019",0.45,66,2019-12-10
2397,Sold,0x00d7c9,Pranksy,0.40Ξ ($109),"Jun 20, 2019",0.4,109,2019-06-20
2398,Sold,Pixls,0x_NFT,"4.50Ξ ($1,551)","Sep 25, 2020",4.5,1551,2020-09-25
2398,Sold,Cyborg,Pixls,0.28Ξ ($42),"Jan 07, 2019",0.28,42,2019-01-07
2398,Sold,0xd8e806,Cyborg,0.18Ξ ($55),"Aug 12, 2017",0.18,55,2017-08-12
2398,Sold,0x22160e,0xd8e806,0.39Ξ ($74),"Jul 11, 2017",0.39,74,2017-07-11
2402,Sold,9151458,Mr_0x,0.58Ξ ($81),"Mar 20, 2019",0.58,81,2019-03-20
2402,Sold,11976269,0x8ba3e2,0.09Ξ ($26),"Nov 01, 2017",0.09,26,2017-11-01
2404,Sold,0x13816f,0x90b2e9,"13.87Ξ ($26,318)","Feb 18, 2021",13.87,26318,2021-02-18
2404,Sold,CPyrc,0x13816f,"5.59Ξ ($1,945)","Oct 04, 2020",5.59,1945,2020-10-04
2404,Sold,MANAmans…,CPyrc,"5.65Ξ ($1,963)","Oct 03, 2020",5.65,1963,2020-10-03
2404,Sold,0x584c7a,MANAmans…,"4.40Ξ ($1,581)","Sep 28, 2020",4.4,1581,2020-09-28
2404,Sold,0xbfa319,0x584c7a,2.29Ξ ($853),"Sep 20, 2020",2.29,853,2020-09-20
2404,Sold,0xb6be4d,0xbfa319,0.09Ξ ($34),"Nov 22, 2017",0.09,34,2017-11-22
2405,Sold,0x84c920,0x968fa0,"17Ξ ($31,313)","Mar 09, 2021",17,31313,2021-03-09
2405,Sold,rssi.eth,0x84c920,"19Ξ ($32,762)","Mar 08, 2021",19,32762,2021-03-08
2405,Sold,0xb6be4d,rssi.eth,0.09Ξ ($42),"Dec 01, 2017",0.09,42,2017-12-01
2406,Sold,Carlini8,PM_disco…,2.50Ξ ($574),"Jun 21, 2020",2.5,574,2020-06-21
2406,Sold,0x61e7e7,Carlini8,2Ξ ($401),"May 26, 2020",2,401,2020-05-26
2406,Sold,0xfb077c,0x61e7e7,0.50Ξ ($124),"Jun 10, 2019",0.5,124,2019-06-10
2407,Sold,0x0713a6,m01222,"6.50Ξ ($2,381)","Oct 16, 2020",6.5,2381,2020-10-16
2407,Sold,Pranksy,0x0713a6,0.99Ξ ($200),"May 14, 2020",0.99,200,2020-05-14
2407,Sold,0xe45df5,Pranksy,0.70Ξ ($94),"Jan 04, 2020",0.7,94,2020-01-04
2408,Sold,9151458,8350887,0.09Ξ ($80),"Feb 20, 2018",0.09,80,2018-02-20
2408,Sold,11976269,9151458,0.09Ξ ($26),"Nov 01, 2017",0.09,26,2017-11-01
2410,Sold,Pranksy,azkaban,"4.25Ξ ($5,497)","Jan 10, 2021",4.25,5497,2021-01-10
2410,Sold,ddaavvee,2pac,"7.25Ξ ($4,439)","Dec 24, 2020",7.25,4439,2020-12-24
2412,Sold,8533182,9100287,0.13Ξ ($91),"Dec 13, 2017",0.13,91,2017-12-13
2414,Sold,Hemba,0x6611fe,0.51Ξ ($149),"Sep 29, 2017",0.51,149,2017-09-29
2416,Sold,16451452,stazie,0.50Ξ ($68),"Mar 21, 2019",0.5,68,2019-03-21
2417,Sold,VonMises,0xb3af57,"6.99Ξ ($12,247)","Feb 11, 2021",6.99,12247,2021-02-11
2417,Sold,0x470e9b,VonMises,1Ξ ($213),"May 09, 2020",1,213,2020-05-09
2420,Sold,Pranksy,VonMises,1Ξ ($188),"May 11, 2020",1,188,2020-05-11
2420,Sold,0x00d7c9,Pranksy,0.40Ξ ($109),"Jun 20, 2019",0.4,109,2019-06-20
2421,Sold,0x491be7,0x36fbd8,"28.88Ξ ($54,201)","Mar 14, 2021",28.88,54201,2021-03-14
2421,Sold,0x90b653,0x491be7,"21Ξ ($31,712)","Feb 26, 2021",21,31712,2021-02-26
2421,Sold,Hemba,0x90b653,0.11Ξ ($32),"Aug 27, 2018",0.11,32,2018-08-27
2423,Sold,EliteCat…,0xe4f0ac,"49Ξ ($76,047)","Feb 23, 2021",49,76047,2021-02-23
2423,Sold,0xd4fa6e,GoWest23,2Ξ ($323),"Jan 16, 2020",2,323,2020-01-16
2424,Sold,0x34cdf7,evkort,0.10Ξ ($35),"Oct 06, 2020",0.1,35,2020-10-06
2424,Sold,evkort,0x34cdf7,0.10Ξ ($35),"Oct 06, 2020",0.1,35,2020-10-06
2424,Sold,Snowfro,Pranksy,"40Ξ ($15,084)","Sep 14, 2020",40,15084,2020-09-14
2425,Sold,11976269,13704234,0.09Ξ ($42),"Dec 04, 2017",0.09,42,2017-12-04
2426,Sold,ddaavvee,0x3e17fa,"69Ξ ($121,617)","Feb 15, 2021",69,121617,2021-02-15
2427,Sold,11976269,10898397,0.09Ξ ($38),"Dec 06, 2017",0.09,38,2017-12-06
2429,Sold,opal.eth,0x3d40e3,"22.94Ξ ($35,262)","Mar 01, 2021",22.94,35262,2021-03-01
2429,Sold,0x1da533,opal.eth,"21Ξ ($41,030)","Feb 21, 2021",21,41030,2021-02-21
2429,Sold,0x231707,DANNY,3.50Ξ ($723),"May 27, 2020",3.5,723,2020-05-27
2430,Sold,12189147,150475,"19Ξ ($38,109)","Feb 20, 2021",19,38109,2021-02-20
2430,Sold,5858674,12189147,"18Ξ ($34,050)","Feb 18, 2021",18,34050,2021-02-18
2430,Sold,2671661,5858674,"7.80Ξ ($13,623)","Feb 09, 2021",7.8,13623,2021-02-09
2433,Sold,0x1a96af,azkaban,0.55Ξ ($116),"May 08, 2020",0.55,116,2020-05-08
2435,Sold,0xd3e2e7,xaix.eth,"39.67Ξ ($83,342)","Apr 03, 2021",39.67,83342,2021-04-03
2435,Sold,heeee.et…,0xd3e2e7,"25.99Ξ ($49,861)","Feb 18, 2021",25.99,49861,2021-02-18
2435,Sold,0xa3cb30,heeee.et…,"14Ξ ($25,838)","Feb 14, 2021",14,25838,2021-02-14
2441,Sold,0x581b59,ross_VRO…,1.18Ξ ($349),"Jun 21, 2019",1.18,349,2019-06-21
2441,Sold,0xfb077c,0x581b59,0.75Ξ ($204),"Jun 20, 2019",0.75,204,2019-06-20
2442,Sold,Hemba,Pixls,0.11Ξ ($48),"Jul 31, 2018",0.11,48,2018-07-31
2443,Sold,0xf86a58,0x3792b4,"16.90Ξ ($33,344)","Feb 20, 2021",16.9,33344,2021-02-20
2443,Sold,0x148940,0xf86a58,"12.50Ξ ($21,829)","Feb 17, 2021",12.5,21829,2021-02-17
2443,Sold,Hemba,0x148940,0.12Ξ ($90),"Dec 17, 2017",0.12,90,2017-12-17
2444,Sold,ManOverb…,0x5fdafa,1.20Ξ ($445),"Sep 11, 2020",1.2,445,2020-09-11
2444,Sold,TweetyPi…,ManOverb…,0.99Ξ ($232),"Jun 17, 2020",0.99,232,2020-06-17
2444,Sold,0x231707,TweetyPi…,1.50Ξ ($305),"May 26, 2020",1.5,305,2020-05-26
2445,Sold,0xf5099e,393680,0.75Ξ ($205),"Jun 17, 2019",0.75,205,2019-06-17
2445,Sold,0xa7eba7,10528156,0.40Ξ ($117),"Aug 13, 2017",0.4,117,2017-08-13
2447,Sold,Hemba,Kenney,0.11Ξ ($114),"Jan 19, 2018",0.11,114,2018-01-19
2448,Sold,Hemba,0x03911f,0.11Ξ ($83),"Jan 01, 2018",0.11,83,2018-01-01
2450,Sold,0x4960c4…,0x953750,"21.95Ξ ($40,390)","Feb 17, 2021",21.95,40390,2021-02-17
2450,Sold,0xb44969,0x4960c4…,"17.30Ξ ($31,585)","Feb 14, 2021",17.3,31585,2021-02-14
2450,Sold,2pac,0xbf6ccf,"7Ξ ($4,057)","Dec 24, 2020",7,4057,2020-12-24
2450,Sold,0xa3cb30,0x257e2b,"12Ξ ($4,500)","Oct 10, 2020",12,4500,2020-10-10
2451,Sold,Sted,gaus,2.60Ξ ($907),"Sep 25, 2020",2.6,907,2020-09-25
2451,Sold,0xf28820,Sted,2.10Ξ ($712),"Sep 23, 2020",2.1,712,2020-09-23
2451,Sold,Pranksy,0xf28820,1.75Ξ ($605),"Sep 21, 2020",1.75,605,2020-09-21
2451,Sold,natealex,Pranksy,1.95Ξ ($728),"Sep 14, 2020",1.95,728,2020-09-14
2451,Sold,Davicio,natealex,1.47Ξ ($302),"May 28, 2020",1.47,302,2020-05-28
2451,Sold,0xf0f068…,Davicio,0.70Ξ ($162),"Mar 08, 2020",0.7,162,2020-03-08
2451,Sold,Pranksy,0xf0f068…,0.60Ξ ($85),"Jan 07, 2020",0.6,85,2020-01-07
2451,Sold,0x00d7c9,Pranksy,0.40Ξ ($109),"Jun 20, 2019",0.4,109,2019-06-20
2452,Sold,0x023ef7,0x4dfac3,"31.50Ξ ($53,534)","Mar 23, 2021",31.5,53534,2021-03-23
2452,Sold,EliteCat…,0x023ef7,"28.95Ξ ($43,967)","Mar 05, 2021",28.95,43967,2021-03-05
2452,Sold,shilpixe…,GoWest23,2Ξ ($405),"May 14, 2020",2,405,2020-05-14
2453,Sold,Hemba,0x28784d,0.11Ξ ($155),"Jan 13, 2018",0.11,155,2018-01-13
2455,Sold,Hemba,0x8adbff,0.15Ξ ($105),"Dec 13, 2017",0.15,105,2017-12-13
2456,Sold,Hemba,Bendicio…,0.39Ξ ($80),"Jul 29, 2017",0.39,80,2017-07-29
2457,Sold,0xd6d7ea,0x2ba7f9,"8.20Ξ ($14,266)","Feb 17, 2021",8.2,14266,2021-02-17
2457,Sold,ChrisR,0x568cf5,"5.79Ξ ($2,105)","Sep 28, 2020",5.79,2105,2020-09-28
2457,Sold,Pixls,zebest,0.34Ξ ($57),"Apr 17, 2019",0.34,57,2019-04-17
2457,Sold,PabloFM,Pixls,0.23Ξ ($37),"Feb 23, 2019",0.23,37,2019-02-23
2457,Sold,Hemba,PabloFM,0.11Ξ ($21),"Oct 11, 2018",0.11,21,2018-10-11
2458,Sold,0x8b51c1,0x2f1cfe,"19Ξ ($40,489)","Apr 11, 2021",19,40489,2021-04-11
2458,Sold,MadMax,0x8b51c1,"12.65Ξ ($25,140)","Feb 20, 2021",12.65,25140,2021-02-20
2458,Sold,Durtseuq,MadMax,"9.50Ξ ($18,587)","Feb 19, 2021",9.5,18587,2021-02-19
2458,Sold,Hemba,Durtseuq,0.11Ξ ($26),"Sep 22, 2018",0.11,26,2018-09-22
2461,Sold,ddaavvee,CryptoIn…,1.30Ξ ($273),"May 20, 2020",1.3,273,2020-05-20
2462,Sold,Hemba,Tschuuul…,0.32Ξ ($34),"Feb 03, 2019",0.32,34,2019-02-03
2466,Sold,0xc2ac3c,0x5D5d65…,0.12Ξ ($94),"Dec 18, 2017",0.12,94,2017-12-18
2466,Sold,0x8234be,0xb11d6a,0.05Ξ ($15),"Sep 30, 2017",0.05,15,2017-09-30
2467,Sold,Hemba,gr8wxl,0.42Ξ ($94),"Aug 03, 2017",0.42,94,2017-08-03
2469,Sold,oref,0x93f27b,2.50Ξ ($941),"Sep 15, 2020",2.5,941,2020-09-15
2469,Sold,CPyrc,oref,1.89Ξ ($712),"Sep 14, 2020",1.89,712,2020-09-14
2469,Sold,Davicio,CPyrc,1.47Ξ ($302),"May 28, 2020",1.47,302,2020-05-28
2469,Sold,Hemba,Davicio,0.65Ξ ($118),"Mar 12, 2020",0.65,118,2020-03-12
2470,Sold,Hemba,0x98c488,0.75Ξ ($151),"May 17, 2020",0.75,151,2020-05-17
2471,Sold,Korniej,0x9ebcc5,"13.99Ξ ($26,914)","Feb 18, 2021",13.99,26914,2021-02-18
2471,Sold,0x11c9a7,Korniej,2.10Ξ ($720),"Sep 22, 2020",2.1,720,2020-09-22
2471,Sold,Carlini8,0x11c9a7,2Ξ ($740),"Sep 15, 2020",2,740,2020-09-15
2471,Sold,natealex,Carlini8,1.60Ξ ($602),"Sep 14, 2020",1.6,602,2020-09-14
2471,Sold,_K_A_M_I…,natealex,1.50Ξ ($308),"May 28, 2020",1.5,308,2020-05-28
2471,Sold,Hemba,_K_A_M_I…,1.30Ξ ($263),"May 26, 2020",1.3,263,2020-05-26
2472,Sold,Hemba,0xc352b5,0.32Ξ ($28),"Dec 13, 2018",0.32,28,2018-12-13
2473,Sold,Hemba,msaf3,0.31Ξ ($41),"Feb 24, 2019",0.31,41,2019-02-24
2474,Sold,0x343ad7,0xb63a5c,"23Ξ ($48,566)","Apr 07, 2021",23,48566,2021-04-07
2474,Sold,0xa3cb30,0x343ad7,"16.50Ξ ($34,840)","Apr 03, 2021",16.5,34840,2021-04-03
2475,Sold,55241,6689278,0.50Ξ ($119),"Jul 09, 2017",0.5,119,2017-07-09
2476,Sold,0x398646,0x0b8f4c,"28.30Ξ ($50,372)","Mar 22, 2021",28.3,50372,2021-03-22
2476,Sold,0x56be13,0x398646,"17.50Ξ ($32,969)","Feb 18, 2021",17.5,32969,2021-02-18
2476,Sold,madness,0x56be13,"4.20Ξ ($2,089)","Nov 20, 2020",4.2,2089,2020-11-20
2476,Sold,Michel_M…,madness,"5.40Ξ ($2,029)","Oct 18, 2020",5.4,2029,2020-10-18
2476,Sold,Pranksy,Michel_M…,1.49Ξ ($336),"Jun 29, 2020",1.49,336,2020-06-29
2476,Sold,0x1a96af,Pranksy,1.72Ξ ($349),"May 27, 2020",1.72,349,2020-05-27
2477,Sold,0x99b884,ArtBlock…,1Ξ ($200),"May 14, 2020",1,200,2020-05-14
2478,Sold,Zieg,Snowfro,2.50Ξ ($335),"Mar 25, 2019",2.5,335,2019-03-25
2478,Sold,0xc0f5dd,Zieg,0.35Ξ ($99),"Sep 19, 2017",0.35,99,2017-09-19
2480,Sold,Hemba,0x90b653,0.12Ξ ($138),"Jan 20, 2018",0.12,138,2018-01-20
2481,Sold,0x07c5ea,0xae7721,"9.29Ξ ($16,224)","Feb 17, 2021",9.29,16224,2021-02-17
2481,Sold,CPyrc,0x07c5ea,"8.88Ξ ($16,205)","Feb 14, 2021",8.88,16205,2021-02-14
2481,Sold,0x13816f,CPyrc,"7.10Ξ ($12,749)","Feb 11, 2021",7.1,12749,2021-02-11
2481,Sold,0x69405f,0x13816f,"5.85Ξ ($2,081)","Sep 30, 2020",5.85,2081,2020-09-30
2481,Sold,GoWest23,0x69405f,"5.75Ξ ($2,034)","Sep 29, 2020",5.75,2034,2020-09-29
2481,Sold,Pixls,GoWest23,0.36Ξ ($63),"May 06, 2019",0.36,63,2019-05-06
2481,Sold,Hemba,Pixls,0.13Ξ ($38),"Sep 01, 2018",0.13,38,2018-09-01
2482,Sold,Pranksy,0xff9885,0.50Ξ ($77),"Nov 29, 2019",0.5,77,2019-11-29
2482,Sold,0x00d7c9,Pranksy,0.40Ξ ($109),"Jun 20, 2019",0.4,109,2019-06-20
2483,Sold,kyloren,0xc88ebc,"5.90Ξ ($8,601)","Feb 02, 2021",5.9,8601,2021-02-02
2483,Sold,0x69405f,kyloren,"5.20Ξ ($1,836)","Sep 29, 2020",5.2,1836,2020-09-29
2483,Sold,Carlini8,0x69405f,"5.10Ξ ($1,846)","Sep 28, 2020",5.1,1846,2020-09-28
2483,Sold,j1mmy,Carlini8,"4.44Ξ ($1,595)","Sep 28, 2020",4.44,1595,2020-09-28
2483,Sold,0x725db1,j1mmy,1.10Ξ ($400),"Sep 10, 2020",1.1,400,2020-09-10
2483,Sold,Hemba,0x725db1,0.85Ξ ($360),"Aug 18, 2020",0.85,360,2020-08-18
2484,Sold,0xef6d69,0x0ebd1a,"175Ξ ($311,013)","Feb 17, 2021",175,311013,2021-02-17
2484,Sold,jmg,0xef6d69,"36.99Ξ ($21,991)","Dec 07, 2020",36.99,21991,2020-12-07
2484,Sold,H6A5-0x,jmg,"30Ξ ($11,459)","Nov 03, 2020",30,11459,2020-11-03
2486,Sold,Goop,Kataster…,0.37Ξ ($56),"Dec 08, 2019",0.37,56,2019-12-08
2486,Sold,Fearless…,Goop,0.35Ξ ($53),"Dec 08, 2019",0.35,53,2019-12-08
2486,Sold,Hemba,Fearless…,0.32Ξ ($38),"Jan 24, 2019",0.32,38,2019-01-24
2488,Sold,5734076,0x5ac996,"31Ξ ($56,498)","Mar 18, 2021",31,56498,2021-03-18
2489,Sold,0x1424d2,0x5ad27c,"22.60Ξ ($40,635)","Mar 11, 2021",22.6,40635,2021-03-11
2489,Sold,Cyborg,0x1424d2,0.25Ξ ($22),"Dec 13, 2018",0.25,22,2018-12-13
2490,Sold,0xc9ab58,0xdb81a8,"5.07Ξ ($6,019)","Jan 07, 2021",5.07,6019,2021-01-07
2490,Sold,Blacksta…,Michel_M…,"6Ξ ($3,699)","Dec 25, 2020",6,3699,2020-12-25
2490,Sold,GoWest23,Blacksta…,"4.40Ξ ($1,492)","Sep 23, 2020",4.4,1492,2020-09-23
2490,Sold,Pranksy,GoWest23,1Ξ ($161),"Jan 16, 2020",1,161,2020-01-16
2490,Sold,0x00d7c9,Pranksy,0.40Ξ ($109),"Jun 20, 2019",0.4,109,2019-06-20
2492,Sold,Hemba,0x03911f,0.14Ξ ($106),"Jan 01, 2018",0.14,106,2018-01-01
2501,Sold,point-gr…,0x1d4294,"25.50Ξ ($45,578)","Mar 15, 2021",25.5,45578,2021-03-15
2501,Sold,0xd8cb8f,0xeb725f,"24.99Ξ ($45,048)","Feb 22, 2021",24.99,45048,2021-02-22
2501,Sold,0x491be7,0xd8cb8f,"17.88Ξ ($35,276)","Feb 21, 2021",17.88,35276,2021-02-21
2501,Sold,Pranksy,0x491be7,"6.50Ξ ($2,287)","Oct 04, 2020",6.5,2287,2020-10-04
2501,Sold,KittyGr_…,Pranksy,"5Ξ ($1,763)","Oct 04, 2020",5,1763,2020-10-04
2501,Sold,0x00d7c9,KittyGr_…,0.10Ξ ($60),"Jun 07, 2018",0.1,60,2018-06-07
2502,Sold,DANNY,monopoly…,"32Ξ ($57,834)","Feb 15, 2021",32,57834,2021-02-15
2502,Sold,0x0601d0,DANNY,"11Ξ ($4,233)","Sep 13, 2020",11,4233,2020-09-13
2503,Sold,4774681,7278085,1Ξ ($390),"Aug 22, 2020",1,390,2020-08-22
2504,Sold,ryanduff…,0xdd1e6f,"5Ξ ($8,989)","Feb 09, 2021",5,8989,2021-02-09
2504,Sold,Hemba,ryanduff…,0.15Ξ ($60),"Apr 08, 2018",0.15,60,2018-04-08
2505,Sold,10734384,16740588,"17Ξ ($31,221)","Mar 30, 2021",17,31221,2021-03-30
2506,Sold,755965,757580,"24.50Ξ ($41,221)","Mar 24, 2021",24.5,41221,2021-03-24
2508,Sold,9151458,sov,0.26Ξ ($78),"Oct 21, 2017",0.26,78,2017-10-21
2511,Sold,0xbae25a,0x91ebf4,"19.00Ξ ($39,673)","Apr 09, 2021",19,39673,2021-04-09
2511,Sold,0x0b88fd,wookie.e…,"19.50Ξ ($33,630)","Mar 24, 2021",19.5,33630,2021-03-24
2514,Sold,5734076,9059630,"25.99Ξ ($53,722)","Apr 08, 2021",25.99,53722,2021-04-08
2520,Sold,755965,11499351,"20.50Ξ ($36,318)","Mar 22, 2021",20.5,36318,2021-03-22
2522,Sold,11976269,8350887,0.09Ξ ($41),"Dec 05, 2017",0.09,41,2017-12-05
2523,Sold,0x0b88fd,beautifu…,"65Ξ ($115,813)","Mar 22, 2021",65,115813,2021-03-22
2524,Sold,2233870,45688,0.31Ξ ($69),"Jul 18, 2017",0.31,69,2017-07-18
2526,Sold,13358210,6689278,0.41Ξ ($101),"Jul 08, 2017",0.41,101,2017-07-08
2528,Sold,Hemba,0x5b098b,0.14Ξ ($15),"Nov 26, 2018",0.14,15,2018-11-26
2529,Sold,0x7ea6df,0x032bc4,"16.70Ξ ($32,745)","Feb 21, 2021",16.7,32745,2021-02-21
2529,Sold,Hemba,0x7ea6df,0.77Ξ ($154),"May 16, 2020",0.77,154,2020-05-16
2534,Sold,0x87e225,0x4136e3,0.39Ξ ($70),"Oct 15, 2019",0.39,70,2019-10-15
2534,Sold,ark1,0x87e225,0.30Ξ ($63),"Jul 29, 2019",0.3,63,2019-07-29
2534,Sold,0x8234be,Zieg,0.30Ξ ($50),"Apr 05, 2019",0.3,50,2019-04-05
2535,Sold,0x27c79a,0x98c488,0.72Ξ ($145),"May 17, 2020",0.72,145,2020-05-17
2535,Sold,Shortcut,0x27c79a,0.48Ξ ($69),"Jan 07, 2020",0.48,69,2020-01-07
2535,Sold,Hemba,Shortcut,0.12Ξ ($28),"Oct 08, 2018",0.12,28,2018-10-08
2537,Sold,5091805,3497885,"28.60Ξ ($46,328)","Mar 26, 2021",28.6,46328,2021-03-26
2537,Sold,10734384,5091805,"28.50Ξ ($52,110)","Mar 20, 2021",28.5,52110,2021-03-20
2538,Sold,Hemba,district…,1.50Ξ ($550),"Sep 11, 2020",1.5,550,2020-09-11
2539,Sold,5966219,11004839,"7.45Ξ ($9,940)","Jan 28, 2021",7.45,9940,2021-01-28
2539,Sold,14602955,5966219,0.05Ξ ($14),"Jun 24, 2017",0.05,14,2017-06-24
2540,Sold,0x8ba3e2,TokenAng…,"6.50Ξ ($1,217)","May 10, 2020",6.5,1217,2020-05-10
2541,Sold,5734076,5333848,"24.99Ξ ($52,002)","Apr 09, 2021",24.99,52002,2021-04-09
2549,Sold,12878075,7480481,"81Ξ ($155,401)","Feb 22, 2021",81,155401,2021-02-22
2550,Sold,755965,14799517,"48Ξ ($99,066)","Apr 08, 2021",48,99066,2021-04-08
2553,Sold,Hemba,0x7f6ca7,0.08Ξ ($91),"Jan 11, 2018",0.08,91,2018-01-11
2554,Sold,Hemba,0xdfe5f1,0.10Ξ ($115),"Jan 20, 2018",0.1,115,2018-01-20
2556,Sold,0xe5e771,RobertHo…,"3Ξ ($1,081)","Sep 27, 2020",3,1081,2020-09-27
2556,Sold,MrNFT,0xe5e771,2.15Ξ ($735),"Sep 23, 2020",2.15,735,2020-09-23
2556,Sold,0x11c9a7,MrNFT,1.87Ξ ($642),"Sep 22, 2020",1.87,642,2020-09-22
2556,Sold,Pranksy,0x11c9a7,1.25Ξ ($463),"Sep 11, 2020",1.25,463,2020-09-11
2556,Sold,Hemba,Pranksy,1.25Ξ ($455),"Sep 11, 2020",1.25,455,2020-09-11
2557,Sold,0x8b51c1,0x14ce3e,"21Ξ ($37,501)","Mar 21, 2021",21,37501,2021-03-21
2557,Sold,0x1dabc3,0x8b51c1,"13Ξ ($25,836)","Feb 20, 2021",13,25836,2021-02-20
2557,Sold,kyloren,0x1dabc3,"9.69Ξ ($17,540)","Feb 17, 2021",9.69,17540,2021-02-17
2557,Sold,Carlini8,kyloren,"5.20Ξ ($1,840)","Sep 29, 2020",5.2,1840,2020-09-29
2557,Sold,0x6fb180,Carlini8,"5.10Ξ ($1,852)","Sep 28, 2020",5.1,1852,2020-09-28
2557,Sold,Hemba,0x6fb180,2.50Ξ ($910),"Sep 16, 2020",2.5,910,2020-09-16
2560,Sold,0x832179,Kenney,1.60Ξ ($987),"Apr 20, 2018",1.6,987,2018-04-20
2562,Sold,Hemba,0xc352b5,0.59Ξ ($51),"Dec 13, 2018",0.59,51,2018-12-13
2563,Sold,Hemba,0xc352b5,0.32Ξ ($39),"Feb 14, 2019",0.32,39,2019-02-14
2564,Sold,Hemba,0x0c3195…,0.26Ξ ($34),"Dec 23, 2018",0.26,34,2018-12-23
2565,Sold,Pixls,0x9e199d,0.18Ξ ($35),"Oct 12, 2018",0.18,35,2018-10-12
2565,Sold,Hemba,Pixls,0.13Ξ ($38),"Sep 01, 2018",0.13,38,2018-09-01
2567,Sold,0x8bb4f3,capital_…,"7.50Ξ ($8,270)","Jan 13, 2021",7.5,8270,2021-01-13
2568,Sold,VonMises,Avocuddl…,1.10Ξ ($225),"May 25, 2020",1.1,225,2020-05-25
2568,Sold,Hemba,VonMises,0.63Ξ ($125),"May 14, 2020",0.63,125,2020-05-14
2570,Sold,0x36fbd8,0x623fc4,"48.88Ξ ($94,232)","Mar 14, 2021",48.88,94232,2021-03-14
2570,Sold,NFTinTin,0x36fbd8,"34.99Ξ ($68,307)","Feb 21, 2021",34.99,68307,2021-02-21
2570,Sold,Pranksy,NFTinTin,0.60Ξ ($80),"Jan 03, 2020",0.6,80,2020-01-03
2570,Sold,0x00d7c9,Pranksy,0.40Ξ ($109),"Jun 20, 2019",0.4,109,2019-06-20
2571,Sold,9155827,5639799,"34.99Ξ ($62,377)","Mar 19, 2021",34.99,62377,2021-03-19
2572,Sold,Pranksy,0x6ec30f,"36.69Ξ ($62,215)","Mar 27, 2021",36.69,62215,2021-03-27
2572,Sold,0x787b92,Pranksy,"48Ξ ($75,966)","Mar 04, 2021",48,75966,2021-03-04
2574,Sold,5331586,12800693,0.12Ξ ($35),"Jun 29, 2017",0.12,35,2017-06-29
2575,Sold,ross_VRO…,0x7a3960,"4.50Ξ ($1,650)","Oct 17, 2020",4.5,1650,2020-10-17
2575,Sold,Zieg,ross_VRO…,"5.90Ξ ($2,148)","Oct 01, 2020",5.9,2148,2020-10-01
2575,Sold,SharkWha…,Zieg,"5.80Ξ ($2,045)","Sep 29, 2020",5.8,2045,2020-09-29
2575,Sold,Slider92,SharkWha…,"3.30Ξ ($1,162)","Sep 27, 2020",3.3,1162,2020-09-27
2575,Sold,Hemba,Slider92,0.85Ξ ($367),"Aug 31, 2020",0.85,367,2020-08-31
2576,Sold,13358210,7435267,0.31Ξ ($76),"Jul 08, 2017",0.31,76,2017-07-08
2577,Sold,MadMax,0x568cf5,"5.55Ξ ($2,015)","Sep 28, 2020",5.55,2015,2020-09-28
2577,Sold,GoWest23,MadMax,"5.25Ξ ($1,906)","Sep 28, 2020",5.25,1906,2020-09-28
2577,Sold,Hemba,GoWest23,0.50Ξ ($87),"May 06, 2019",0.5,87,2019-05-06
2578,Sold,0x0873fc,11844417,"20.05Ξ ($37,595)","Feb 22, 2021",20.05,37595,2021-02-22
2579,Sold,TokenAng…,evkort,"4Ξ ($1,550)","Sep 13, 2020",4,1550,2020-09-13
2579,Sold,0xe45df5,TokenAng…,1.09Ξ ($180),"Jan 16, 2020",1.09,180,2020-01-16
2580,Sold,0x411f43,0x30a73a,"21Ξ ($40,253)","Feb 22, 2021",21,40253,2021-02-22
2580,Sold,Hemba,ArtBlock…,0.77Ξ ($153),"May 14, 2020",0.77,153,2020-05-14
2581,Sold,0x09d408,0x6a0ed3,"10Ξ ($15,394)","Feb 03, 2021",10,15394,2021-02-03
2581,Sold,SenecaEt…,0x09d408,"7.50Ξ ($9,506)","Jan 27, 2021",7.5,9506,2021-01-27
2581,Sold,0x34e801,SenecaEt…,"5.98Ξ ($7,980)","Jan 25, 2021",5.98,7980,2021-01-25
2581,Sold,BitcoinG…,Michel_M…,1.60Ξ ($703),"Aug 15, 2020",1.6,703,2020-08-15
2581,Sold,Carlini8,BitcoinG…,2Ξ ($400),"May 22, 2020",2,400,2020-05-22
2581,Sold,Pranksy,Carlini8,0.60Ξ ($76),"Jan 03, 2020",0.6,76,2020-01-03
2581,Sold,0x00d7c9,Pranksy,0.40Ξ ($109),"Jun 20, 2019",0.4,109,2019-06-20
2582,Sold,Hemba,0xcd2c66,1Ξ ($441),"Aug 14, 2020",1,441,2020-08-14
2584,Sold,0x3ba9cd,gaus,"2.95Ξ ($1,047)","Sep 26, 2020",2.95,1047,2020-09-26
2584,Sold,Carlini8,0x3ba9cd,2Ξ ($679),"Sep 23, 2020",2,679,2020-09-23
2584,Sold,Hemba,Carlini8,1.50Ξ ($564),"Sep 14, 2020",1.5,564,2020-09-14
2586,Sold,0x2e10fd,0xf55cfe,"22.88Ξ ($35,681)","Mar 04, 2021",22.88,35681,2021-03-04
2586,Sold,0x491be7,0x2e10fd,"18.88Ξ ($36,888)","Feb 21, 2021",18.88,36888,2021-02-21
2586,Sold,NeonNFT,0x491be7,"4.99Ξ ($1,759)","Oct 05, 2020",4.99,1759,2020-10-05
2586,Sold,KittyGr_…,NeonNFT,"4Ξ ($1,411)","Oct 04, 2020",4,1411,2020-10-04
2586,Sold,Hemba,KittyGr_…,0.15Ξ ($90),"Jun 08, 2018",0.15,90,2018-06-08
2587,Sold,Hemba,stazie,0.48Ξ ($116),"Jun 04, 2019",0.48,116,2019-06-04
2588,Sold,0x596572,15139826,"26.50Ξ ($52,808)","Apr 08, 2021",26.5,52808,2021-04-08
2588,Sold,0x577ebc,5858674,"26Ξ ($47,401)","Mar 20, 2021",26,47401,2021-03-20
2589,Sold,VonMises,0xf2565f,"12Ξ ($20,563)","Feb 10, 2021",12,20563,2021-02-10
2589,Sold,TokenAng…,VonMises,3Ξ ($613),"May 25, 2020",3,613,2020-05-25
2589,Sold,jmg,TokenAng…,1.45Ξ ($198),"Jan 09, 2020",1.45,198,2020-01-09
2589,Sold,Hemba,jmg,0.10Ξ ($47),"Nov 26, 2017",0.1,47,2017-11-26
2590,Sold,Hemba,0x374bd1,0.90Ξ ($221),"May 23, 2019",0.9,221,2019-05-23
2591,Sold,644104,15819743,"29.99Ξ ($54,960)","Mar 20, 2021",29.99,54960,2021-03-20
2591,Sold,5734076,644104,"7.50Ξ ($11,138)","Feb 02, 2021",7.5,11138,2021-02-02
2592,Sold,evantan.…,0x064cfc,"35Ξ ($51,264)","Feb 27, 2021",35,51264,2021-02-27
2592,Sold,0xdcf227,evantan.…,"20.50Ξ ($41,032)","Feb 20, 2021",20.5,41032,2021-02-20
2592,Sold,0x19f233,0xdcf227,"16.25Ξ ($31,460)","Feb 18, 2021",16.25,31460,2021-02-18
2593,Sold,Michel_M…,snax,"3.10Ξ ($1,194)","Sep 18, 2020",3.1,1194,2020-09-18
2593,Sold,Hemba,Michel_M…,0.88Ξ ($344),"Aug 28, 2020",0.88,344,2020-08-28
2594,Sold,Erdos,0xd65973,"19.84Ξ ($27,635)","Feb 28, 2021",19.84,27635,2021-02-28
2594,Sold,Hemba,Erdos,0.13Ξ ($112),"Jan 02, 2018",0.13,112,2018-01-02
2595,Sold,Hemba,0x9e199d,0.12Ξ ($24),"Oct 12, 2018",0.12,24,2018-10-12
2597,Sold,0x5aaeb9,Nissla,2.40Ξ ($843),"Sep 24, 2020",2.4,843,2020-09-24
2597,Sold,ross_VRO…,0x5aaeb9,2.29Ξ ($792),"Sep 24, 2020",2.29,792,2020-09-24
2597,Sold,SharkWha…,ross_VRO…,1.99Ξ ($739),"Sep 12, 2020",1.99,739,2020-09-12
2597,Sold,Hemba,SharkWha…,1.30Ξ ($264),"May 27, 2020",1.3,264,2020-05-27
2598,Sold,0x313206,Pixls,1.70Ξ ($620),"Sep 14, 2020",1.7,620,2020-09-14
2598,Sold,0x48db19,0x313206,1Ξ ($244),"Jun 23, 2020",1,244,2020-06-23
2599,Sold,0x5e7ee9,gaus,"3.50Ξ ($1,252)","Sep 28, 2020",3.5,1252,2020-09-28
2599,Sold,0xf4239e,0x5e7ee9,"3Ξ ($1,032)","Sep 25, 2020",3,1032,2020-09-25
2599,Sold,Hemba,0xf4239e,2.30Ξ ($796),"Sep 24, 2020",2.3,796,2020-09-24
2602,Sold,Hemba,0x7760e0,0.15Ξ ($51),"Oct 14, 2017",0.15,51,2017-10-14
2603,Sold,2607002,10011784,0.74Ξ ($144),"May 16, 2020",0.74,144,2020-05-16
2603,Sold,6781763,2607002,0.49Ξ ($70),"Jan 07, 2020",0.49,70,2020-01-07
2603,Sold,12322844,6781763,0.30Ξ ($68),"Jul 20, 2017",0.3,68,2017-07-20
2604,Sold,12322844,na,0.30Ξ ($69),"Jul 22, 2017",0.3,69,2017-07-22
2605,Sold,0x577ebc,ross_VRO…,"33Ξ ($56,811)","Feb 05, 2021",33,56811,2021-02-05
2606,Sold,12322844,5772875,0.30Ξ ($65),"Jul 21, 2017",0.3,65,2017-07-21
2607,Sold,Pranksy,0xaf5bdc,1.49Ξ ($301),"May 25, 2020",1.49,301,2020-05-25
2607,Sold,0x00d7c9,Pranksy,0.40Ξ ($109),"Jun 20, 2019",0.4,109,2019-06-20
2609,Sold,13516492,6797282,"36Ξ ($69,026)","Mar 13, 2021",36,69026,2021-03-13
2609,Sold,15840856,7348023,"19Ξ ($32,915)","Feb 15, 2021",19,32915,2021-02-15
2609,Sold,10734384,15840856,"9.50Ξ ($17,264)","Feb 14, 2021",9.5,17264,2021-02-14
2614,Sold,0xf5099e,Cerf,0.60Ξ ($117),"May 13, 2019",0.6,117,2019-05-13
2614,Sold,0xf138eb,0xa0a59c,0.20Ξ ($56),"Jun 25, 2017",0.2,56,2017-06-25
2616,Sold,14693721,11844417,"25Ξ ($39,190)","Mar 02, 2021",25,39190,2021-03-02
2619,Sold,Kenney,0x4cc53c,"53.50Ξ ($99,026)","Mar 14, 2021",53.5,99026,2021-03-14
2619,Sold,Hemba,Kenney,0.17Ξ ($196),"Jan 20, 2018",0.17,196,2018-01-20
2621,Sold,jmg,0x03911f,0.79Ξ ($597),"Jan 01, 2018",0.79,597,2018-01-01
2621,Sold,0x682c30,0x00bd3a,0.39Ξ ($94),"Jul 07, 2017",0.39,94,2017-07-07
2622,Sold,0x8234be,Kenney,0.26Ξ ($156),"Mar 16, 2018",0.26,156,2018-03-16
2624,Sold,Pranksy,0x0713a6,1.56Ξ ($330),"May 07, 2020",1.56,330,2020-05-07
2624,Sold,0x5b098b,0xff8414,0.15Ξ ($44),"Jun 27, 2017",0.15,44,2017-06-27
2624,Sold,0x071524,0x5b098b,0.10Ξ ($29),"Jun 27, 2017",0.1,29,2017-06-27
2626,Sold,755965,Deeze,"49.31Ξ ($89,044)","Mar 21, 2021",49.31,89044,2021-03-21
2628,Sold,10734384,16308135,"10Ξ ($18,282)","Feb 12, 2021",10,18282,2021-02-12
2629,Sold,0x033ee7,0xa40b66,"14.12Ξ ($27,183)","Feb 18, 2021",14.12,27183,2021-02-18
2629,Sold,Dude_Nak…,0x033ee7,"2.95Ξ ($1,021)","Sep 24, 2020",2.95,1021,2020-09-24
2629,Sold,Pranksy,Dude_Nak…,1.95Ξ ($743),"Sep 20, 2020",1.95,743,2020-09-20
2629,Sold,Davicio,Pranksy,1.95Ξ ($735),"Sep 14, 2020",1.95,735,2020-09-14
2629,Sold,Pranksy,Davicio,0.69Ξ ($85),"Mar 15, 2020",0.69,85,2020-03-15
2629,Sold,Hemba,Pranksy,0.52Ξ ($70),"Jan 04, 2020",0.52,70,2020-01-04
2631,Sold,1633948,5333848,"19.10Ξ ($39,367)","Apr 04, 2021",19.1,39367,2021-04-04
2631,Sold,11268359,1633948,"19Ξ ($39,522)","Apr 04, 2021",19,39522,2021-04-04
2631,Sold,5091805,11268359,"15.99Ξ ($32,179)","Apr 04, 2021",15.99,32179,2021-04-04
2631,Sold,2671661,5091805,"29Ξ ($52,843)","Mar 19, 2021",29,52843,2021-03-19
2632,Sold,0xa3cb30,🏃🏻‍♂.e…,"19Ξ ($34,928)","Mar 30, 2021",19,34928,2021-03-30
2633,Sold,0x29b1b2,0xbe6377,"53.99Ξ ($96,595)","Mar 11, 2021",53.99,96595,2021-03-11
2633,Sold,Loopify,0x29b1b2,"7.55Ξ ($10,788)","Jan 25, 2021",7.55,10788,2021-01-25
2633,Sold,0xb05b7d,Loopify,"7.50Ξ ($9,889)","Jan 24, 2021",7.5,9889,2021-01-24
2634,Sold,0x5caff0…,0xdc5556,"26Ξ ($49,868)","Feb 22, 2021",26,49868,2021-02-22
2634,Sold,0x6611fe,0x5caff0…,"12Ξ ($21,688)","Feb 15, 2021",12,21688,2021-02-15
2635,Sold,0x44da37,0x3e1e5d,"16Ξ ($30,877)","Apr 01, 2021",16,30877,2021-04-01
2635,Sold,0x4dea06,0x44da37,"16.50Ξ ($30,448)","Mar 30, 2021",16.5,30448,2021-03-30
2635,Sold,0xa6a86e,0x4dea06,"18Ξ ($29,978)","Mar 28, 2021",18,29978,2021-03-28
2635,Sold,0x8e564e,0xa6a86e,"20Ξ ($33,436)","Mar 24, 2021",20,33436,2021-03-24
2635,Sold,0x0b88fd,0x8e564e,"19Ξ ($32,498)","Mar 23, 2021",19,32498,2021-03-23
2636,Sold,6689278,16196448,"12.65Ξ ($24,334)","Feb 19, 2021",12.65,24334,2021-02-19
2637,Sold,2299655,337252,"4Ξ ($1,384)","Sep 24, 2020",4,1384,2020-09-24
2640,Sold,0x00bd3a,sov,0.37Ξ ($76),"Jul 13, 2017",0.37,76,2017-07-13
2640,Sold,Hemba,0x00bd3a,0.09Ξ ($18),"Jul 11, 2017",0.09,18,2017-07-11
2641,Sold,5734076,15925611,"43Ξ ($78,586)","Mar 20, 2021",43,78586,2021-03-20
2645,Sold,0x0b88fd,🤹🏻‍♂.e…,"27Ξ ($54,454)","Apr 04, 2021",27,54454,2021-04-04
2652,Sold,0xe35d84,redlione…,"17.49Ξ ($36,152)","Apr 08, 2021",17.49,36152,2021-04-08
2652,Sold,0x6611fe,0x9c355c,"8.10Ξ ($14,933)","Feb 14, 2021",8.1,14933,2021-02-14
2653,Sold,7957637,1278319,"23.90Ξ ($35,677)","Feb 26, 2021",23.9,35677,2021-02-26
2653,Sold,6689278,7957637,"16Ξ ($30,836)","Feb 19, 2021",16,30836,2021-02-19
2654,Sold,Pranksy,0x3e17fa,"17.99Ξ ($32,894)","Feb 14, 2021",17.99,32894,2021-02-14
2654,Sold,0x577ebc,Pranksy,"9Ξ ($14,475)","Feb 04, 2021",9,14475,2021-02-04
2655,Sold,Hemba,0x592a51,0.15Ξ ($189),"Jan 12, 2018",0.15,189,2018-01-12
2659,Sold,Gmugr,0xb596b6,"10.44Ξ ($18,297)","Feb 17, 2021",10.44,18297,2021-02-17
2659,Sold,EliteCat…,Gmugr,"8.79Ξ ($15,491)","Feb 15, 2021",8.79,15491,2021-02-15
2659,Sold,0x7f6ca7,GoWest23,0.45Ξ ($78),"May 06, 2019",0.45,78,2019-05-06
2659,Sold,Hemba,0x7f6ca7,0.10Ξ ($81),"Dec 19, 2017",0.1,81,2017-12-19
2660,Sold,PM_disco…,CryptoEa…,"4.90Ξ ($1,684)","Sep 22, 2020",4.9,1684,2020-09-22
2660,Sold,0xad4f9e,PM_disco…,"3.75Ξ ($1,285)","Sep 22, 2020",3.75,1285,2020-09-22
2660,Sold,PM_disco…,0xad4f9e,"2.95Ξ ($1,053)","Sep 13, 2020",2.95,1053,2020-09-13
2660,Sold,Pranksy,PM_disco…,1.50Ξ ($345),"Jul 02, 2020",1.5,345,2020-07-02
2660,Sold,0xc00c2b,Pranksy,1.15Ξ ($165),"Jan 07, 2020",1.15,165,2020-01-07
2661,Sold,0x3ba9cd,0x568cf5,"5.25Ξ ($1,920)","Oct 01, 2020",5.25,1920,2020-10-01
2661,Sold,ross_VRO…,0x3ba9cd,"3.35Ξ ($1,164)","Sep 24, 2020",3.35,1164,2020-09-24
2661,Sold,MrTpunks…,ross_VRO…,0.60Ξ ($129),"Feb 06, 2020",0.6,129,2020-02-06
2661,Sold,0x6611fe,MrTpunks…,0.71Ξ ($96),"Jan 05, 2020",0.71,96,2020-01-05
2663,Sold,Hemba,0x1fafa6,0.65Ξ ($165),"Feb 16, 2020",0.65,165,2020-02-16
2665,Sold,12743405,willholt…,"30Ξ ($61,916)","Apr 08, 2021",30,61916,2021-04-08
2666,Sold,CPyrc,0x3ee505,2.66Ξ ($920),"Sep 24, 2020",2.66,920,2020-09-24
2666,Sold,Pranksy,CPyrc,2.19Ξ ($717),"Sep 24, 2020",2.19,717,2020-09-24
2666,Sold,Hemba,Pranksy,1.80Ξ ($613),"Sep 22, 2020",1.8,613,2020-09-22
2667,Sold,Hemba,Catdog,0.66Ξ ($131),"May 14, 2020",0.66,131,2020-05-14
2668,Sold,0x033ee7,0x708c0f,"4.97Ξ ($6,729)","Jan 30, 2021",4.97,6729,2021-01-30
2668,Sold,zonted,0x033ee7,"3.33Ξ ($1,152)","Sep 24, 2020",3.33,1152,2020-09-24
2668,Sold,Hemba,zonted,1.40Ξ ($518),"Sep 12, 2020",1.4,518,2020-09-12
2669,Sold,Hemba,whiterab…,1.40Ξ ($519),"Sep 12, 2020",1.4,519,2020-09-12
2670,Sold,0x27c79a,haumord,0.74Ξ ($201),"Feb 23, 2020",0.74,201,2020-02-23
2670,Sold,Fearless…,0x27c79a,0.50Ξ ($72),"Jan 07, 2020",0.5,72,2020-01-07
2670,Sold,Hemba,Fearless…,0.30Ξ ($35),"Jan 24, 2019",0.3,35,2019-01-24
2671,Sold,0x27c79a,0x98c488,0.73Ξ ($142),"May 16, 2020",0.73,142,2020-05-16
2671,Sold,Fearless…,0x27c79a,0.50Ξ ($72),"Jan 07, 2020",0.5,72,2020-01-07
2671,Sold,Hemba,Fearless…,0.30Ξ ($35),"Jan 24, 2019",0.3,35,2019-01-24
2672,Sold,Pixls,whiterab…,"2.90Ξ ($1,086)","Sep 15, 2020",2.9,1086,2020-09-15
2672,Sold,Hemba,Pixls,0.35Ξ ($50),"Mar 16, 2019",0.35,50,2019-03-16
2673,Sold,Pranksy,0xbfcfdd,"27.50Ξ ($41,527)","Feb 26, 2021",27.5,41527,2021-02-26
2673,Sold,0x63e639,Pranksy,"21.95Ξ ($31,947)","Feb 26, 2021",21.95,31947,2021-02-26
2673,Sold,0x15396c,0x63e639,"16Ξ ($32,462)","Feb 20, 2021",16,32462,2021-02-20
2673,Sold,kingskin…,0x15396c,"6Ξ ($8,000)","Feb 01, 2021",6,8000,2021-02-01
2673,Sold,Michel_M…,kingskin…,2.10Ξ ($775),"Sep 11, 2020",2.1,775,2020-09-11
2673,Sold,Pranksy,Michel_M…,1.30Ξ ($316),"Jun 23, 2020",1.3,316,2020-06-23
2673,Sold,0x00d7c9,Pranksy,0.40Ξ ($109),"Jun 20, 2019",0.4,109,2019-06-20
2674,Sold,kriptoga…,0x0e6167,"17Ξ ($33,539)","Feb 21, 2021",17,33539,2021-02-21
2674,Sold,Hemba,kriptoga…,0.15Ξ ($31),"Oct 26, 2018",0.15,31,2018-10-26
2677,Sold,0xbae25a,0x3aa8bf,"11.55Ξ ($21,317)","Feb 17, 2021",11.55,21317,2021-02-17
2677,Sold,iPhone,0xbae25a,"10Ξ ($18,522)","Feb 17, 2021",10,18522,2021-02-17
2677,Sold,0xc1e42f,iPhone,"5.99Ξ ($2,126)","Sep 30, 2020",5.99,2126,2020-09-30
2677,Sold,MrNFT,0xc1e42f,"5.96Ξ ($2,167)","Sep 28, 2020",5.96,2167,2020-09-28
2677,Sold,W_M_Peas…,MrNFT,"5.75Ξ ($2,091)","Sep 28, 2020",5.75,2091,2020-09-28
2677,Sold,Pranksy,W_M_Peas…,"4.79Ξ ($1,742)","Sep 28, 2020",4.79,1742,2020-09-28
2677,Sold,0xef764b…,Pranksy,"3.99Ξ ($1,427)","Sep 28, 2020",3.99,1427,2020-09-28
2677,Sold,Hemba,0xef764b…,2.30Ξ ($796),"Sep 24, 2020",2.3,796,2020-09-24
2679,Sold,2233870,45688,0.31Ξ ($69),"Jul 18, 2017",0.31,69,2017-07-18
2681,Sold,0xb44969,8338175,"277Ξ ($539,527)","Feb 19, 2021",277,539527,2021-02-19
2681,Sold,0x0ed6fe,12545231,"83Ξ ($54,018)","Dec 26, 2020",83,54018,2020-12-26
2688,Sold,CPyrc,0xa58ff1,"25Ξ ($39,972)","Feb 25, 2021",25,39972,2021-02-25
2688,Sold,TokenFue…,CPyrc,"7.79Ξ ($13,999)","Feb 15, 2021",7.79,13999,2021-02-15
2688,Sold,0x00d7c9,TokenFue…,0.10Ξ ($105),"Jan 16, 2018",0.1,105,2018-01-16
2689,Sold,8533182,Kenney,0.10Ξ ($105),"Jan 16, 2018",0.1,105,2018-01-16
2690,Sold,Hemba,0x7760e0,0.16Ξ ($51),"Nov 09, 2017",0.16,51,2017-11-09
2691,Sold,7434510,ddaavvee,"6.97Ξ ($2,545)","Sep 28, 2020",6.97,2545,2020-09-28
2693,Sold,Cyborg,Cyrus,0.30Ξ ($32),"Feb 01, 2019",0.3,32,2019-02-01
2694,Sold,Cyborg,0xc352b5,0.24Ξ ($63),"Jul 05, 2017",0.24,63,2017-07-05
2695,Sold,Gmugr,0x49e1bb,"9.88Ξ ($17,308)","Feb 15, 2021",9.88,17308,2021-02-15
2695,Sold,0x290b4e,Gmugr,"8Ξ ($14,469)","Feb 14, 2021",8,14469,2021-02-14
2695,Sold,Carlini8,0x290b4e,"5.80Ξ ($2,076)","Sep 29, 2020",5.8,2076,2020-09-29
2695,Sold,GoWest23,Carlini8,"5.50Ξ ($1,951)","Sep 29, 2020",5.5,1951,2020-09-29
2695,Sold,Hemba,GoWest23,0.50Ξ ($123),"May 23, 2019",0.5,123,2019-05-23
2698,Sold,0xd8e806,5772875,2Ξ ($407),"Jul 25, 2017",2,407,2017-07-25
2698,Sold,0xfb077c,14215174,0.90Ξ ($207),"Jul 22, 2017",0.9,207,2017-07-22
2702,Sold,kingskin…,0x59a549,"5Ξ ($6,299)","Jan 23, 2021",5,6299,2021-01-23
2702,Sold,0x1a96af,kingskin…,1.99Ξ ($735),"Sep 11, 2020",1.99,735,2020-09-11
2707,Sold,10734384,6369491,"18.99Ξ ($36,929)","Feb 20, 2021",18.99,36929,2021-02-20
2708,Sold,0x5462de,7823584,1.50Ξ ($527),"Sep 02, 2017",1.5,527,2017-09-02
2709,Sold,14966261,10361245,0.25Ξ ($21),"Dec 16, 2018",0.25,21,2018-12-16
2711,Sold,straybit…,sov,1Ξ ($276),"Jul 03, 2017",1,276,2017-07-03
2713,Sold,0x29b1b2,0x3fa864,"34.99Ξ ($63,898)","Mar 11, 2021",34.99,63898,2021-03-11
2713,Sold,hellogar…,0x29b1b2,"29Ξ ($56,494)","Feb 21, 2021",29,56494,2021-02-21
2713,Sold,0x577ebc,hellogar…,"19Ξ ($34,519)","Feb 13, 2021",19,34519,2021-02-13
2714,Sold,0xa7eba7,0xb1aaf1,"21.99Ξ ($37,854)","Mar 28, 2021",21.99,37854,2021-03-28
2714,Sold,Pranksy,0xa7eba7,"12Ξ ($21,653)","Feb 14, 2021",12,21653,2021-02-14
2714,Sold,CPyrc,Pranksy,"7.50Ξ ($11,629)","Feb 03, 2021",7.5,11629,2021-02-03
2714,Sold,0x06f7af,CPyrc,"5.98Ξ ($9,272)","Feb 03, 2021",5.98,9272,2021-02-03
2714,Sold,0xdae48d,0x814634,"1Ξ ($1,344)","Jan 30, 2021",1,1344,2021-01-30
2715,Sold,0xa3cb30,jmg,"7.60Ξ ($2,761)","Oct 09, 2020",7.6,2761,2020-10-09
2716,Sold,0xc272ed,5405545,"24Ξ ($39,706)","Mar 07, 2021",24,39706,2021-03-07
2719,Sold,CPyrc,0x778608,"23.25Ξ ($37,844)","Feb 24, 2021",23.25,37844,2021-02-24
2719,Sold,0x19f233,CPyrc,"22Ξ ($33,886)","Feb 23, 2021",22,33886,2021-02-23
2720,Sold,Pixls,0x9e199d,0.24Ξ ($20),"Dec 16, 2018",0.24,20,2018-12-16
2720,Sold,Cyborg,Pixls,0.20Ξ ($18),"Dec 08, 2018",0.2,18,2018-12-08
2720,Sold,0xbc081c,Cyborg,0.30Ξ ($68),"Jul 24, 2017",0.3,68,2017-07-24
2721,Sold,4418122,12417863,"27.50Ξ ($49,454)","Mar 21, 2021",27.5,49454,2021-03-21
2721,Sold,6249972,4418122,"24.99Ξ ($44,453)","Mar 11, 2021",24.99,44453,2021-03-11
2722,Sold,14966261,45688,0.35Ξ ($94),"Jul 04, 2017",0.35,94,2017-07-04
2724,Sold,0x14e8a3,aviexkak…,"19Ξ ($36,574)","Feb 21, 2021",19,36574,2021-02-21
2724,Sold,0x052564,0x14e8a3,"19Ξ ($36,574)","Feb 21, 2021",19,36574,2021-02-21
2724,Sold,0xbc081c,0xd8e806,0.30Ξ ($58),"Jul 19, 2017",0.3,58,2017-07-19
2726,Sold,ddaavvee,0x8f6b1e,"27.26Ξ ($53,412)","Feb 21, 2021",27.26,53412,2021-02-21
2728,Sold,NeonNFT,0x13816f,"4.99Ξ ($1,756)","Oct 05, 2020",4.99,1756,2020-10-05
2728,Sold,KittyGr_…,NeonNFT,"4Ξ ($1,411)","Oct 04, 2020",4,1411,2020-10-04
2728,Sold,Hemba,KittyGr_…,0.14Ξ ($84),"Jun 08, 2018",0.14,84,2018-06-08
2729,Sold,Carlini8,PB,2Ξ ($419),"May 17, 2020",2,419,2020-05-17
2729,Sold,0x8ba3e2,Carlini8,0.80Ξ ($102),"Jan 03, 2020",0.8,102,2020-01-03
2729,Sold,0x00d7c9,0x8ba3e2,0.10Ξ ($29),"Nov 01, 2017",0.1,29,2017-11-01
2730,Sold,0xabc72d,0xca7ae4,"45Ξ ($93,685)","Apr 09, 2021",45,93685,2021-04-09
2730,Sold,Pranksy,0xabc72d,"36.99Ξ ($58,853)","Mar 03, 2021",36.99,58853,2021-03-03
2730,Sold,0x8ac65f,Pranksy,"15Ξ ($26,049)","Feb 09, 2021",15,26049,2021-02-09
2731,Sold,Hemba,0x7760e0,0.15Ξ ($51),"Oct 14, 2017",0.15,51,2017-10-14
2732,Sold,GoWest23,0x568cf5,"5.50Ξ ($1,946)","Sep 29, 2020",5.5,1946,2020-09-29
2732,Sold,Hemba,GoWest23,0.50Ξ ($87),"May 06, 2019",0.5,87,2019-05-06
2733,Sold,0xc155f9,0x050a3b,"15.55Ξ ($30,468)","Feb 21, 2021",15.55,30468,2021-02-21
2733,Sold,NeonNFT,0xc155f9,2.65Ξ ($918),"Sep 25, 2020",2.65,918,2020-09-25
2733,Sold,Hemba,NeonNFT,2.30Ξ ($796),"Sep 24, 2020",2.3,796,2020-09-24
2735,Sold,11004839,472499,0.18Ξ ($145),"Dec 18, 2017",0.18,145,2017-12-18
2736,Sold,curating…,0xb5b84e,"30Ξ ($58,580)","Feb 21, 2021",30,58580,2021-02-21
2738,Sold,renaissa…,0x62bdc6,"16.25Ξ ($33,589)","Apr 08, 2021",16.25,33589,2021-04-08
2738,Sold,0xa762aa,renaissa…,"14Ξ ($28,290)","Apr 05, 2021",14,28290,2021-04-05
2738,Sold,0x3e17fa,0xa762aa,"8Ξ ($14,410)","Feb 16, 2021",8,14410,2021-02-16
2738,Sold,SenecaEt…,0x3e17fa,"3.25Ξ ($1,155)","Sep 26, 2020",3.25,1155,2020-09-26
2738,Sold,NeonNFT,SenecaEt…,2.65Ξ ($922),"Sep 25, 2020",2.65,922,2020-09-25
2738,Sold,Hemba,NeonNFT,2.30Ξ ($796),"Sep 24, 2020",2.3,796,2020-09-24
2739,Sold,0xe5e771,hahah.et…,"6.75Ξ ($11,814)","Feb 09, 2021",6.75,11814,2021-02-09
2739,Sold,Pranksy,0xe5e771,2.19Ξ ($719),"Sep 24, 2020",2.19,719,2020-09-24
2739,Sold,Hemba,Pranksy,1.80Ξ ($613),"Sep 22, 2020",1.8,613,2020-09-22
2740,Sold,0xe45df5,10361245,1.50Ξ ($179),"Jan 22, 2019",1.5,179,2019-01-22
2742,Sold,sov,Cry,"10Ξ ($3,782)","Oct 15, 2020",10,3782,2020-10-15
2744,Sold,0xeb725f,0x7d7ea7,"19.99Ξ ($38,480)","Feb 21, 2021",19.99,38480,2021-02-21
2744,Sold,0x65ba4f,0xeb725f,"10.98Ξ ($19,953)","Feb 17, 2021",10.98,19953,2021-02-17
2744,Sold,0x13816f,0x65ba4f,"7.69Ξ ($14,141)","Feb 14, 2021",7.69,14141,2021-02-14
2744,Sold,0x3ba9cd,0x13816f,"3.10Ξ ($1,091)","Sep 27, 2020",3.1,1091,2020-09-27
2744,Sold,Carlini8,0x3ba9cd,2Ξ ($678),"Sep 23, 2020",2,678,2020-09-23
2744,Sold,Hemba,Carlini8,1.40Ξ ($526),"Sep 14, 2020",1.4,526,2020-09-14
2746,Sold,0x5aa83f,jlwaugh.…,0.30Ξ ($55),"Nov 14, 2018",0.3,55,2018-11-14
2746,Sold,0x8234be,0x5aa83f,0.10Ξ ($69),"Dec 16, 2017",0.1,69,2017-12-16
2750,Sold,0x5ff57f,Catdog,0.70Ξ ($142),"May 14, 2020",0.7,142,2020-05-14
2750,Sold,Dude_Nak…,0x5ff57f,0.60Ξ ($135),"Feb 10, 2020",0.6,135,2020-02-10
2750,Sold,Hemba,Dude_Nak…,0.10Ξ ($42),"Apr 03, 2018",0.1,42,2018-04-03
2752,Sold,0x624394,0xa8c18e,"20Ξ ($34,693)","Mar 08, 2021",20,34693,2021-03-08
2752,Sold,0x3ba9cd,0x624394,"2.95Ξ ($1,043)","Sep 26, 2020",2.95,1043,2020-09-26
2752,Sold,0xf28820,0x3ba9cd,2.10Ξ ($712),"Sep 23, 2020",2.1,712,2020-09-23
2752,Sold,ross_VRO…,0xf28820,1.90Ξ ($715),"Sep 15, 2020",1.9,715,2020-09-15
2752,Sold,Pranksy,ross_VRO…,1.50Ξ ($557),"Sep 12, 2020",1.5,557,2020-09-12
2752,Sold,Hemba,Pranksy,1.40Ξ ($514),"Sep 11, 2020",1.4,514,2020-09-11
2753,Sold,0x727ca3,7233169,4.50Ξ ($930),"May 23, 2020",4.5,930,2020-05-23
2753,Sold,0xc00c2b,7503011,0.68Ξ ($140),"Jul 10, 2017",0.68,140,2017-07-10
2754,Sold,Hemba,0xca8131,0.44Ξ ($61),"Mar 28, 2019",0.44,61,2019-03-28
2758,Sold,0x13816f,0x8bf6ef,"14.88Ξ ($28,977)","Feb 20, 2021",14.88,28977,2021-02-20
2758,Sold,0x3ba9cd,0x13816f,"5.50Ξ ($1,954)","Sep 29, 2020",5.5,1954,2020-09-29
2758,Sold,Carlini8,0x3ba9cd,2.50Ξ ($869),"Sep 24, 2020",2.5,869,2020-09-24
2758,Sold,Pranksy,Carlini8,1.99Ξ ($748),"Sep 14, 2020",1.99,748,2020-09-14
2758,Sold,Michel_M…,Pranksy,1.40Ξ ($542),"Sep 13, 2020",1.4,542,2020-09-13
2758,Sold,Hemba,Michel_M…,1.30Ξ ($296),"Jun 20, 2020",1.3,296,2020-06-20
2759,Sold,0xc0f5dd,sov,0.50Ξ ($142),"Sep 19, 2017",0.5,142,2017-09-19
2760,Sold,0x1f8add,PB,"6.50Ξ ($1,402)","May 18, 2020",6.5,1402,2020-05-18
2760,Sold,Dude_Nak…,0x1f8add,4.49Ξ ($861),"May 10, 2020",4.49,861,2020-05-10
2760,Sold,Slacktid…,Dude_Nak…,0.70Ξ ($128),"Nov 01, 2019",0.7,128,2019-11-01
2760,Sold,0xc2ac3c,0x976b59,0.40Ξ ($90),"Oct 02, 2018",0.4,90,2018-10-02
2760,Sold,shilpixe…,0xb11d6a,0.29Ξ ($97),"Oct 16, 2017",0.29,97,2017-10-16
2761,Sold,0x87e225,Sylveste…,0.69Ξ ($120),"May 06, 2019",0.69,120,2019-05-06
2761,Sold,0xf5099e,0x87e225,0.40Ξ ($60),"Jan 08, 2019",0.4,60,2019-01-08
2761,Sold,0x8234be,0xa0a59c,0.25Ξ ($75),"Aug 17, 2017",0.25,75,2017-08-17
2762,Sold,0x13816f,0x398646,"23.88Ξ ($44,934)","Feb 22, 2021",23.88,44934,2021-02-22
2762,Sold,0x3ba9cd,0x13816f,"3.50Ξ ($1,245)","Sep 27, 2020",3.5,1245,2020-09-27
2762,Sold,Carlini8,0x3ba9cd,"3Ξ ($1,034)","Sep 25, 2020",3,1034,2020-09-25
2762,Sold,Sylveste…,Carlini8,"2.95Ξ ($1,091)","Sep 15, 2020",2.95,1091,2020-09-15
2762,Sold,DANNY,Sylveste…,2Ξ ($753),"Sep 15, 2020",2,753,2020-09-15
2762,Sold,Hemba,DANNY,1.10Ξ ($222),"May 14, 2020",1.1,222,2020-05-14
2763,Sold,Hemba,0x7760e0,0.20Ξ ($57),"Sep 24, 2017",0.2,57,2017-09-24
2764,Sold,Hemba,reneil13…,0.50Ξ ($98),"May 13, 2019",0.5,98,2019-05-13
2765,Sold,Hemba,Pixls,0.29Ξ ($41),"Dec 30, 2018",0.29,41,2018-12-30
2766,Sold,0x6b88ac,9883041,0.90Ξ ($263),"Nov 07, 2017",0.9,263,2017-11-07
2766,Sold,0x682c30,7047340,1Ξ ($284),"Jul 02, 2017",1,284,2017-07-02
2767,Sold,5734076,4915169,"26.99Ξ ($48,738)","Mar 19, 2021",26.99,48738,2021-03-19
2768,Sold,0x00d7c9,8278656,0.75Ξ ($191),"May 21, 2019",0.75,191,2019-05-21
2768,Sold,0x8234be,55241,0.30Ξ ($68),"Jul 23, 2017",0.3,68,2017-07-23
2769,Sold,0x0601d0,1574505,"4.25Ξ ($1,598)","Oct 18, 2020",4.25,1598,2020-10-18
2769,Sold,0xc00c2b,16745492,0.20Ξ ($57),"Jul 02, 2017",0.2,57,2017-07-02
2770,Sold,0x024bcb,0x31ac98,"30Ξ ($62,704)","Apr 10, 2021",30,62704,2021-04-10
2770,Sold,0x304288,0x024bcb,"19.50Ξ ($39,112)","Feb 20, 2021",19.5,39112,2021-02-20
2770,Sold,0xdc24c4,PM_disco…,"5.20Ξ ($1,971)","Oct 15, 2020",5.2,1971,2020-10-15
2770,Sold,damshoey,0xdc24c4,"3.52Ξ ($1,326)","Oct 10, 2020",3.52,1326,2020-10-10
2770,Sold,Ranger,damshoey,2.50Ξ ($951),"Sep 20, 2020",2.5,951,2020-09-20
2770,Sold,Pranksy,Ranger,0.50Ξ ($85),"Sep 25, 2019",0.5,85,2019-09-25
2770,Sold,0x00d7c9,Pranksy,0.40Ξ ($109),"Jun 20, 2019",0.4,109,2019-06-20
2771,Sold,0x13816f,0x0b3905,"21.70Ξ ($38,504)","Mar 12, 2021",21.7,38504,2021-03-12
2771,Sold,0x64d862,0x13816f,"17Ξ ($28,094)","Mar 07, 2021",17,28094,2021-03-07
2771,Sold,0x84c920,0x64d862,"16Ξ ($25,617)","Mar 06, 2021",16,25617,2021-03-06
2771,Sold,gaus,0x84c920,"21Ξ ($30,946)","Mar 05, 2021",21,30946,2021-03-05
2771,Sold,Korniej,0x568cf5,"5.90Ξ ($2,112)","Sep 29, 2020",5.9,2112,2020-09-29
2771,Sold,Pranksy,Korniej,2.19Ξ ($757),"Sep 24, 2020",2.19,757,2020-09-24
2771,Sold,Hemba,Pranksy,1.80Ξ ($613),"Sep 22, 2020",1.8,613,2020-09-22
2772,Sold,0xe96c3e,0x27c79a,1.10Ξ ($222),"May 22, 2020",1.1,222,2020-05-22
2772,Sold,Hemba,el,0.35Ξ ($41),"Jan 25, 2019",0.35,41,2019-01-25
2773,Sold,0xeb725f,0xe75021,"31Ξ ($61,160)","Feb 21, 2021",31,61160,2021-02-21
2773,Sold,0x5e49d0,0xeb725f,"24Ξ ($47,079)","Feb 20, 2021",24,47079,2021-02-20
2773,Sold,MadMax,0x5e49d0,"13.25Ξ ($24,096)","Feb 14, 2021",13.25,24096,2021-02-14
2773,Sold,0x577ebc,MadMax,"9Ξ ($16,344)","Feb 14, 2021",9,16344,2021-02-14
2776,Sold,7293485,1611480,"11.44Ξ ($20,882)","Feb 14, 2021",11.44,20882,2021-02-14
2777,Sold,0x98d217,0xcde160…,0.80Ξ ($329),"Sep 03, 2020",0.8,329,2020-09-03
2777,Sold,sudheer,0x98d217,0.80Ξ ($315),"Aug 07, 2020",0.8,315,2020-08-07
2777,Sold,ross_VRO…,sudheer,1.24Ξ ($294),"Jun 07, 2020",1.24,294,2020-06-07
2777,Sold,natealex,ross_VRO…,1.07Ξ ($219),"May 24, 2020",1.07,219,2020-05-24
2777,Sold,Hemba,natealex,0.63Ξ ($126),"May 14, 2020",0.63,126,2020-05-14
2778,Sold,8678741,7833096,"25Ξ ($44,585)","Feb 22, 2021",25,44585,2021-02-22
2779,Sold,2233870,45688,0.31Ξ ($69),"Jul 18, 2017",0.31,69,2017-07-18
2781,Sold,11599876,3548383,"100Ξ ($190,930)","Mar 13, 2021",100,190930,2021-03-13
2781,Sold,7293485,11599876,"27Ξ ($48,633)","Feb 16, 2021",27,48633,2021-02-16
2782,Sold,4774681,0x411691,0.99Ξ ($378),"Aug 27, 2020",0.99,378,2020-08-27
2783,Sold,Hemba,0x5462de,0.14Ξ ($15),"Nov 27, 2018",0.14,15,2018-11-27
2785,Sold,0x83e0e1,0x274bb5,"21.98Ξ ($42,158)","Feb 22, 2021",21.98,42158,2021-02-22
2785,Sold,0x2b0386,0x83e0e1,"14.30Ξ ($28,623)","Feb 20, 2021",14.3,28623,2021-02-20
2785,Sold,0x4960c4…,0x2b0386,"14Ξ ($26,010)","Feb 18, 2021",14,26010,2021-02-18
2785,Sold,kxbxlt,0x4960c4…,0.79Ξ ($316),"Aug 06, 2020",0.79,316,2020-08-06
2785,Sold,Michel_M…,kxbxlt,0.85Ξ ($204),"Jul 10, 2020",0.85,204,2020-07-10
2785,Sold,cryptosa…,Michel_M…,1Ξ ($245),"Jun 09, 2020",1,245,2020-06-09
2785,Sold,0xfbe1c0,cryptosa…,0.85Ξ ($170),"May 21, 2020",0.85,170,2020-05-21
2785,Sold,Hemba,0xfbe1c0,0.14Ξ ($27),"Nov 03, 2018",0.14,27,2018-11-03
2786,Sold,Hemba,snowfro,0.14Ξ ($15),"Nov 27, 2018",0.14,15,2018-11-27
2787,Sold,0x033ee7,0xa5c80b,"15.69Ξ ($30,460)","Feb 21, 2021",15.69,30460,2021-02-21
2787,Sold,0xbfa319,0x033ee7,"3.35Ξ ($1,158)","Sep 24, 2020",3.35,1158,2020-09-24
2787,Sold,Hemba,0xbfa319,0.14Ξ ($26),"Oct 29, 2018",0.14,26,2018-10-29
2788,Sold,TheNat,cryptobl…,"5.80Ξ ($8,039)","Jan 30, 2021",5.8,8039,2021-01-30
2788,Sold,0xbfa319,TheNat,"3.81Ξ ($1,341)","Sep 27, 2020",3.81,1341,2020-09-27
2788,Sold,0xf0f068…,0xbfa319,0.62Ξ ($168),"Feb 16, 2020",0.62,168,2020-02-16
2788,Sold,ChrisR,0xf0f068…,0.59Ξ ($105),"Jan 29, 2020",0.59,105,2020-01-29
2788,Sold,0x4ca977,ChrisR,0.40Ξ ($67),"May 07, 2019",0.4,67,2019-05-07
2788,Sold,Hemba,0x4ca977,0.14Ξ ($15),"Nov 26, 2018",0.14,15,2018-11-26
2789,Sold,15894560,zico,"5Ξ ($2,045)","Oct 25, 2020",5,2045,2020-10-25
2789,Sold,393680,0xf28820,"4Ξ ($1,647)","Oct 22, 2020",4,1647,2020-10-22
2789,Sold,784659,0xff8414,0.21Ξ ($59),"Jun 25, 2017",0.21,59,2017-06-25
2790,Sold,Deeze,0x516358,"15.99Ξ ($33,189)","Apr 04, 2021",15.99,33189,2021-04-04
2790,Sold,blonded,wookie.e…,"16.50Ξ ($30,040)","Mar 09, 2021",16.5,30040,2021-03-09
2790,Sold,0xd3e2e7,blonded,"8.80Ξ ($16,059)","Feb 14, 2021",8.8,16059,2021-02-14
2790,Sold,0x48db19,0xd3e2e7,"6Ξ ($6,616)","Jan 13, 2021",6,6616,2021-01-13
2791,Sold,22272,Ajiyl,0.07Ξ ($33),"Dec 03, 2017",0.07,33,2017-12-03
2792,Sold,Hemba,Kenney,0.15Ξ ($57),"Apr 04, 2018",0.15,57,2018-04-04
2795,Sold,Dude_Nak…,GoWest23,2.95Ξ ($629),"May 09, 2020",2.95,629,2020-05-09
2795,Sold,0xc2ac3c,Dude_Nak…,0.40Ξ ($45),"Nov 30, 2018",0.4,45,2018-11-30
2795,Sold,Hemba,0xb11d6a,0.20Ξ ($67),"Nov 14, 2017",0.2,67,2017-11-14
2801,Sold,0x00bd3a,0x717403,0.35Ξ ($93),"Jul 05, 2017",0.35,93,2017-07-05
2801,Sold,Cyborg,0x00bd3a,0.20Ξ ($59),"Jun 29, 2017",0.2,59,2017-06-29
2803,Sold,Cyborg,0x9e199d,0.36Ξ ($43),"Jan 22, 2019",0.36,43,2019-01-22
2804,Sold,2299655,15993661,"7Ξ ($2,458)","Sep 26, 2020",7,2458,2020-09-26
2805,Sold,0xd4442b,7851461,"18.75Ξ ($33,885)","Mar 30, 2021",18.75,33885,2021-03-30
2805,Sold,0xedc779,13911083,"17Ξ ($28,699)","Mar 28, 2021",17,28699,2021-03-28
2805,Sold,0xa3cb30,15583097,"19Ξ ($32,608)","Mar 28, 2021",19,32608,2021-03-28
2807,Sold,sov,0xc352b5,0.30Ξ ($342),"Jan 11, 2018",0.3,342,2018-01-11
2808,Sold,14215174,5772875,0.18Ξ ($55),"Aug 12, 2017",0.18,55,2017-08-12
2808,Sold,12322844,14215174,0.30Ξ ($68),"Jul 20, 2017",0.3,68,2017-07-20
2809,Sold,12322844,5772875,0.30Ξ ($58),"Jul 19, 2017",0.3,58,2017-07-19
2816,Sold,7293485,natealex,"24.99Ξ ($45,148)","Mar 20, 2021",24.99,45148,2021-03-20
2817,Sold,Pranksy,0xcb8172,"18Ξ ($32,577)","Mar 29, 2021",18,32577,2021-03-29
2817,Sold,Loopify,Pranksy,"10.10Ξ ($17,540)","Feb 09, 2021",10.1,17540,2021-02-09
2817,Sold,cryptoke…,Loopify,"7Ξ ($10,027)","Feb 02, 2021",7,10027,2021-02-02
2817,Sold,Pranksy,cryptoke…,"6Ξ ($2,130)","Sep 30, 2020",6,2130,2020-09-30
2817,Sold,0x832179,evkort,"6Ξ ($2,259)","Sep 15, 2020",6,2259,2020-09-15
2818,Sold,12322844,10898397,0.15Ξ ($63),"Dec 06, 2017",0.15,63,2017-12-06
2819,Sold,0x491be7,0x050a3b,"23Ξ ($44,938)","Feb 21, 2021",23,44938,2021-02-21
2819,Sold,GoWest23,0x491be7,"6.75Ξ ($2,347)","Oct 03, 2020",6.75,2347,2020-10-03
2819,Sold,0x541075,GoWest23,1Ξ ($161),"Jan 16, 2020",1,161,2020-01-16
2823,Sold,0x3a04bb,6689278,0.50Ξ ($103),"Jul 13, 2017",0.5,103,2017-07-13
2824,Sold,0x07c5ea,0x829a08,"25.95Ξ ($43,981)","Feb 23, 2021",25.95,43981,2021-02-23
2824,Sold,0xfaf959…,0x07c5ea,"24Ξ ($42,801)","Feb 22, 2021",24,42801,2021-02-22
2824,Sold,0x135bd1,0xfaf959…,"3.80Ξ ($1,568)","Oct 23, 2020",3.8,1568,2020-10-23
2824,Sold,0xa3cb30,0x135bd1,"6.25Ξ ($2,200)","Oct 04, 2020",6.25,2200,2020-10-04
2825,Sold,0x61e208,0x4824dc,"15.99Ξ ($32,918)","Apr 02, 2021",15.99,32918,2021-04-02
2825,Sold,CPyrc,0x568cf5,"5.80Ξ ($2,106)","Sep 28, 2020",5.8,2106,2020-09-28
2825,Sold,GoWest23,CPyrc,"4.95Ξ ($1,800)","Sep 28, 2020",4.95,1800,2020-09-28
2825,Sold,0x5b098b,GoWest23,0.38Ξ ($66),"May 06, 2019",0.38,66,2019-05-06
2825,Sold,0xbc081c,0x5b098b,0.30Ξ ($68),"Jul 20, 2017",0.3,68,2017-07-20
2826,Sold,2pac,0xdf4c62,"3.75Ξ ($2,191)","Dec 14, 2020",3.75,2191,2020-12-14
2826,Sold,0xa3cb30,0x257e2b,"6.50Ξ ($2,420)","Oct 11, 2020",6.5,2420,2020-10-11
2827,Sold,Hemba,0x07f537,0.12Ξ ($52),"Jul 31, 2018",0.12,52,2018-07-31
2830,Sold,Hemba,0xc352b5,0.15Ξ ($31),"Oct 23, 2018",0.15,31,2018-10-23
2831,Sold,0x257e2b,0xa7eba7,"7Ξ ($2,661)","Oct 21, 2020",7,2661,2020-10-21
2831,Sold,0xa3cb30,0x257e2b,"8Ξ ($3,037)","Oct 13, 2020",8,3037,2020-10-13
2832,Sold,heeee.et…,0x577ebc,"21Ξ ($35,273)","Mar 23, 2021",21,35273,2021-03-23
2832,Sold,0xed657f,heeee.et…,"19Ξ ($32,002)","Mar 22, 2021",19,32002,2021-03-22
2832,Sold,0xb4bb41,0xed657f,"24.99Ξ ($40,240)","Mar 06, 2021",24.99,40240,2021-03-06
2832,Sold,0x167e00,0xb4bb41,"17Ξ ($33,539)","Feb 21, 2021",17,33539,2021-02-21
2832,Sold,0xb6be4d,0x167e00,"7.25Ξ ($9,346)","Jan 28, 2021",7.25,9346,2021-01-28
2832,Sold,0x1f8add,0xb6be4d,1Ξ ($391),"Aug 23, 2020",1,391,2020-08-23
2832,Sold,0xfbe1c0,0x1f8add,0.95Ξ ($182),"May 10, 2020",0.95,182,2020-05-10
2832,Sold,Hemba,0xfbe1c0,0.15Ξ ($30),"Nov 03, 2018",0.15,30,2018-11-03
2833,Sold,0xc272ed,TokenAng…,"20Ξ ($38,908)","Feb 19, 2021",20,38908,2021-02-19
2834,Sold,Hemba,0x7f6ca7,0.11Ξ ($72),"Dec 12, 2017",0.11,72,2017-12-12
2835,Sold,tonyherr…,0xb4a8bf,"19Ξ ($39,551)","Apr 09, 2021",19,39551,2021-04-09
2837,Sold,Hemba,0x8ca89c,0.12Ξ ($83),"Dec 14, 2017",0.12,83,2017-12-14
2838,Sold,Hemba,0xdfe5f1,0.13Ξ ($111),"Feb 28, 2018",0.13,111,2018-02-28
2840,Sold,1742511,11040482,0.61Ξ ($125),"May 04, 2020",0.61,125,2020-05-04
2842,Sold,Hemba,0xaa83ea,0.14Ξ ($16),"Nov 29, 2018",0.14,16,2018-11-29
2844,Sold,0xa3cb30,8593785,"38.50Ξ ($54,335)","Feb 02, 2021",38.5,54335,2021-02-02
2845,Sold,0xddfdcb,0xca63cd,"25Ξ ($54,283)","Apr 10, 2021",25,54283,2021-04-10
2845,Sold,0x691b87,0xddfdcb,"23.99Ξ ($49,588)","Apr 08, 2021",23.99,49588,2021-04-08
2845,Sold,VonMises,0xeb725f,"18Ξ ($33,122)","Feb 17, 2021",18,33122,2021-02-17
2845,Sold,Pranksy,VonMises,3.10Ξ ($663),"May 28, 2020",3.1,663,2020-05-28
2845,Sold,futurema…,Pranksy,1.50Ξ ($303),"May 22, 2020",1.5,303,2020-05-22
2845,Sold,jmg,futurema…,0.35Ξ ($43),"Jan 17, 2019",0.35,43,2019-01-17
2845,Sold,0x595bd0,0x00bd3a,0.27Ξ ($55),"Jul 26, 2017",0.27,55,2017-07-26
2846,Sold,Hemba,Pixls,0.14Ξ ($24),"Nov 17, 2018",0.14,24,2018-11-17
2848,Sold,0x1424d2,CryptoPa…,0.29Ξ ($36),"Jan 17, 2019",0.29,36,2019-01-17
2848,Sold,Hemba,0x1424d2,0.14Ξ ($15),"Dec 03, 2018",0.14,15,2018-12-03
2849,Sold,Hemba,0x3ab536,0.14Ξ ($27),"Nov 03, 2018",0.14,27,2018-11-03
2850,Sold,EliteCat…,sumrtime…,"9.25Ξ ($16,718)","Feb 15, 2021",9.25,16718,2021-02-15
2850,Sold,0x470e9b,GoWest23,0.40Ξ ($69),"May 06, 2019",0.4,69,2019-05-06
2851,Sold,0x00d7c9,KittyGr_…,0.10Ξ ($60),"Jun 08, 2018",0.1,60,2018-06-08
2852,Sold,0x62bdc6,shilpixe…,"32Ξ ($56,402)","Mar 12, 2021",32,56402,2021-03-12
2852,Sold,0x577ebc,0x62bdc6,"30Ξ ($54,538)","Mar 12, 2021",30,54538,2021-03-12
2853,Sold,0x3f1724,0xf75fcd,"28Ξ ($46,169)","Feb 24, 2021",28,46169,2021-02-24
2853,Sold,Hemba,0x3f1724,0.13Ξ ($103),"Dec 21, 2017",0.13,103,2017-12-21
2854,Sold,0x00d7c9,Pixls,0.40Ξ ($70),"Apr 20, 2019",0.4,70,2019-04-20
2855,Sold,alphab.e…,0x8e3934,"21.40Ξ ($41,020)","Feb 22, 2021",21.4,41020,2021-02-22
2855,Sold,0x8f1f31,alphab.e…,"15Ξ ($29,863)","Feb 20, 2021",15,29863,2021-02-20
2855,Sold,Hemba,ArtBlock…,0.60Ξ ($134),"Feb 29, 2020",0.6,134,2020-02-29
2856,Sold,0xf29711,0x73ee16,"27Ξ ($51,800)","Feb 22, 2021",27,51800,2021-02-22
2856,Sold,Deeze,0xf29711,"6.49Ξ ($11,163)","Feb 08, 2021",6.49,11163,2021-02-08
2856,Sold,0xbf6ccf,Deeze,"4.50Ξ ($5,771)","Jan 10, 2021",4.5,5771,2021-01-10
2856,Sold,0xdc3689,0xbf6ccf,"4.19Ξ ($2,610)","Dec 22, 2020",4.19,2610,2020-12-22
2856,Sold,0x51357b,99Zed,"3.72Ξ ($1,436)","Oct 29, 2020",3.72,1436,2020-10-29
2856,Sold,0xcb832d,0x51357b,1.50Ξ ($551),"Sep 11, 2020",1.5,551,2020-09-11
2856,Sold,0x4f596f,0xcb832d,1Ξ ($214),"May 20, 2020",1,214,2020-05-20
2856,Sold,0x8234be,0x4f596f,0.10Ξ ($128),"Jan 15, 2018",0.1,128,2018-01-15
2857,Sold,14215174,5779367,1.49Ξ ($366),"Jul 08, 2017",1.49,366,2017-07-08
2860,Sold,0x62bdc6,0x69d2e7,"21.49Ξ ($44,875)","Apr 09, 2021",21.49,44875,2021-04-09
2860,Sold,0xd4442b,0x62bdc6,"19.70Ξ ($40,658)","Apr 08, 2021",19.7,40658,2021-04-08
2860,Sold,0x97db27,0xd4442b,"16.50Ξ ($34,106)","Apr 08, 2021",16.5,34106,2021-04-08
2860,Sold,0xaae8c5,0x97db27,"21.80Ξ ($37,812)","Feb 22, 2021",21.8,37812,2021-02-22
2860,Sold,CPyrc,0x11c9a7,"3.45Ξ ($1,528)","Nov 06, 2020",3.45,1528,2020-11-06
2860,Sold,LSD,CPyrc,"3.59Ξ ($1,460)","Oct 25, 2020",3.59,1460,2020-10-25
2860,Sold,Pixls,isaacfuf…,0.31Ξ ($46),"Feb 22, 2019",0.31,46,2019-02-22
2860,Sold,Hemba,Pixls,0.26Ξ ($23),"Dec 08, 2018",0.26,23,2018-12-08
2862,Sold,0xdbc416,0x6b1297,"24.50Ξ ($44,164)","Feb 22, 2021",24.5,44164,2021-02-22
2862,Sold,0x0503ed,0xdbc416,"4.90Ξ ($6,516)","Jan 26, 2021",4.9,6516,2021-01-26
2862,Sold,coinduph…,0x0503ed,"3.48Ξ ($4,734)","Jan 26, 2021",3.48,4734,2021-01-26
2862,Sold,0x87e225,coinduph…,0.35Ξ ($58),"Apr 12, 2019",0.35,58,2019-04-12
2862,Sold,Hemba,0x87e225,0.30Ξ ($46),"Jan 07, 2019",0.3,46,2019-01-07
2863,Sold,MrTpunks…,Kataster…,0.85Ξ ($192),"Feb 09, 2020",0.85,192,2020-02-09
2863,Sold,Pranksy,MrTpunks…,0.89Ξ ($128),"Jan 12, 2020",0.89,128,2020-01-12
2863,Sold,0x00d7c9,Pranksy,0.40Ξ ($109),"Jun 20, 2019",0.4,109,2019-06-20
2864,Sold,0x565496,0xb52235,"22Ξ ($42,984)","Feb 21, 2021",22,42984,2021-02-21
2864,Sold,shilpixe…,0x565496,"15Ξ ($27,602)","Feb 17, 2021",15,27602,2021-02-17
2865,Sold,Hemba,0x9e199d,0.30Ξ ($26),"Dec 16, 2018",0.3,26,2018-12-16
2866,Sold,shilpixe…,0xa1ed22,"17Ξ ($34,038)","Apr 02, 2021",17,34038,2021-04-02
2867,Sold,16058782,5615543,0.50Ξ ($124),"Sep 21, 2018",0.5,124,2018-09-21
2867,Sold,6827056,10528156,0.35Ξ ($94),"Jul 04, 2017",0.35,94,2017-07-04
2868,Sold,Hemba,0x98c488,0.85Ξ ($337),"Aug 23, 2020",0.85,337,2020-08-23
2870,Sold,0xf4239e,gaus,"3.50Ξ ($1,252)","Sep 28, 2020",3.5,1252,2020-09-28
2870,Sold,Hemba,0xf4239e,2.30Ξ ($795),"Sep 24, 2020",2.3,795,2020-09-24
2872,Sold,Pranksy,0xa9c206,0.55Ξ ($96),"Sep 27, 2019",0.55,96,2019-09-27
2872,Sold,0x00d7c9,Pranksy,0.40Ξ ($109),"Jun 20, 2019",0.4,109,2019-06-20
2873,Sold,Sylveste…,0xe5e771,"9.50Ξ ($3,438)","Sep 28, 2020",9.5,3438,2020-09-28
2873,Sold,GoWest23,Sylveste…,"5.75Ξ ($2,088)","Sep 28, 2020",5.75,2088,2020-09-28
2873,Sold,Pranksy,GoWest23,1Ξ ($161),"Jan 16, 2020",1,161,2020-01-16
2873,Sold,0x00d7c9,Pranksy,0.40Ξ ($109),"Jun 20, 2019",0.4,109,2019-06-20
2874,Sold,0x00d7c9,CyrusOld,0.05Ξ ($29),"Jun 01, 2018",0.05,29,2018-06-01
2875,Sold,MrNFT,0xe5e771,"5.94Ξ ($2,122)","Sep 30, 2020",5.94,2122,2020-09-30
2875,Sold,GoWest23,MrNFT,"4.85Ξ ($1,761)","Sep 28, 2020",4.85,1761,2020-09-28
2875,Sold,Hemba,GoWest23,0.42Ξ ($73),"May 06, 2019",0.42,73,2019-05-06
2876,Sold,Hemba,0x27c79a,1.20Ξ ($249),"May 23, 2020",1.2,249,2020-05-23
2877,Sold,gr8wxl,0x6f0e05,"3Ξ ($1,126)","Sep 15, 2020",3,1126,2020-09-15
2877,Sold,Hemba,gr8wxl,0.43Ξ ($96),"Aug 03, 2017",0.43,96,2017-08-03
2878,Sold,renaissa…,0x379133,"23.95Ξ ($51,270)","Apr 12, 2021",23.95,51270,2021-04-12
2878,Sold,0xa3cb30,renaissa…,"18Ξ ($33,120)","Mar 31, 2021",18,33120,2021-03-31
2879,Sold,2299655,337252,"4Ξ ($1,384)","Sep 24, 2020",4,1384,2020-09-24
2880,Sold,0x2f1cfe,0x4e1622,"21.99Ξ ($47,152)","Apr 10, 2021",21.99,47152,2021-04-10
2880,Sold,point-gr…,0x2f1cfe,"19.99Ξ ($41,257)","Apr 08, 2021",19.99,41257,2021-04-08
2880,Sold,0x0e9aed,point-gr…,"16.99Ξ ($35,119)","Apr 08, 2021",16.99,35119,2021-04-08
2880,Sold,0xa9d942,0x0e9aed,"15Ξ ($29,870)","Apr 07, 2021",15,29870,2021-04-07
2880,Sold,TokenAng…,0xa9d942,"29Ξ ($41,913)","Feb 28, 2021",29,41913,2021-02-28
2880,Sold,0x48db19,TokenAng…,"24Ξ ($37,554)","Feb 23, 2021",24,37554,2021-02-23
2881,Sold,gCAN,0x6ef237,"5.50Ξ ($3,495)","Dec 26, 2020",5.5,3495,2020-12-26
2881,Sold,wolong,gCAN,"3.25Ξ ($1,543)","Nov 19, 2020",3.25,1543,2020-11-19
2881,Sold,MrNFT,wolong,"2.98Ξ ($1,014)","Sep 25, 2020",2.98,1014,2020-09-25
2881,Sold,Pranksy,MrNFT,2.75Ξ ($948),"Sep 25, 2020",2.75,948,2020-09-25
2881,Sold,0x5aaeb9,Pranksy,2.29Ξ ($792),"Sep 24, 2020",2.29,792,2020-09-24
2881,Sold,Pranksy,0x5aaeb9,2.19Ξ ($757),"Sep 24, 2020",2.19,757,2020-09-24
2881,Sold,Hemba,Pranksy,1.80Ξ ($613),"Sep 22, 2020",1.8,613,2020-09-22
2883,Sold,antunes_…,Slider92,"5.90Ξ ($2,169)","Oct 01, 2020",5.9,2169,2020-10-01
2883,Sold,0x4dcaf3,antunes_…,0.50Ξ ($76),"Apr 25, 2019",0.5,76,2019-04-25
2883,Sold,0x996737,0x4dcaf3,0.30Ξ ($76),"Jun 26, 2017",0.3,76,2017-06-26
2884,Sold,0x8ba3e2,8278656,0.30Ξ ($139),"Nov 25, 2017",0.3,139,2017-11-25
2887,Sold,0x565496,monopoly…,"20Ξ ($34,747)","Feb 11, 2021",20,34747,2021-02-11
2887,Sold,Pranksy,0x565496,"12Ξ ($13,192)","Jan 12, 2021",12,13192,2021-01-12
2887,Sold,Deeze,2pac,"13.37Ξ ($8,112)","Dec 24, 2020",13.37,8112,2020-12-24
2887,Sold,0x585f98,Deeze,"10Ξ ($3,411)","Oct 08, 2020",10,3411,2020-10-08
2888,Sold,0xc9ab58,0x5b331e,"5.99Ξ ($9,928)","Feb 08, 2021",5.99,9928,2021-02-08
2888,Sold,Deeze,0xc9ab58,"6.39Ξ ($8,500)","Feb 01, 2021",6.39,8500,2021-02-01
2888,Sold,0x033ee7,Deeze,"5.24Ξ ($6,674)","Jan 28, 2021",5.24,6674,2021-01-28
2888,Sold,blocktop…,0x033ee7,"3.50Ξ ($1,211)","Sep 24, 2020",3.5,1211,2020-09-24
2888,Sold,Hemba,0xc352b5,0.42Ξ ($36),"Dec 13, 2018",0.42,36,2018-12-13
2889,Sold,7293485,12604552,"81Ξ ($146,979)","Mar 08, 2021",81,146979,2021-03-08
2890,Sold,0x6611fe,0x24c5eb,"605Ξ ($761,889)","Jan 23, 2021",605,761889,2021-01-23
2890,Sold,straybit…,0x6611fe,"8Ξ ($2,127)","Jul 06, 2017",8,2127,2017-07-06
2892,Sold,EliteCat…,0xca37d8,"60Ξ ($87,997)","Feb 26, 2021",60,87997,2021-02-26
2892,Sold,Michel_M…,EliteCat…,"15Ξ ($5,271)","Oct 05, 2020",15,5271,2020-10-05
2892,Sold,0x541075,Michel_M…,"7Ξ ($2,456)","Oct 05, 2020",7,2456,2020-10-05
2895,Sold,5734076,2340107,"69Ξ ($102,870)","Mar 05, 2021",69,102870,2021-03-05
2896,Sold,Hemba,Kenney,0.15Ξ ($57),"Apr 04, 2018",0.15,57,2018-04-04
2897,Sold,Cyborg,0xc352b5,0.20Ξ ($59),"Jun 29, 2017",0.2,59,2017-06-29
2898,Sold,0x610cfc,0xb9afc8,"7Ξ ($8,777)","Jan 28, 2021",7,8777,2021-01-28
2898,Sold,Zieg,ross_VRO…,"5.50Ξ ($1,914)","Oct 04, 2020",5.5,1914,2020-10-04
2898,Sold,antunes_…,Zieg,"4.85Ξ ($1,671)","Oct 02, 2020",4.85,1671,2020-10-02
2898,Sold,Pranksy,antunes_…,0.60Ξ ($98),"Jan 14, 2020",0.6,98,2020-01-14
2898,Sold,Cyborg,Pranksy,0.35Ξ ($94),"May 26, 2019",0.35,94,2019-05-26
2904,Sold,natealex,0xf40b3d,"33.69Ξ ($62,177)","Feb 14, 2021",33.69,62177,2021-02-14
2904,Sold,0x577ebc,natealex,"25Ξ ($46,041)","Feb 12, 2021",25,46041,2021-02-12
2905,Sold,0x48db19,CryptoPa…,"4Ξ ($2,357)","Nov 25, 2020",4,2357,2020-11-25
2906,Sold,509418,6206499,"8.95Ξ ($16,121)","Feb 16, 2021",8.95,16121,2021-02-16
2906,Sold,12196282,509418,"8Ξ ($14,549)","Feb 14, 2021",8,14549,2021-02-14
2907,Sold,point-gr…,0x6b9b69,"19.25Ξ ($39,952)","Apr 09, 2021",19.25,39952,2021-04-09
2907,Sold,aviexkak…,0x800e41,"5.90Ξ ($10,246)","Feb 09, 2021",5.9,10246,2021-02-09
2907,Sold,CPyrc,0x568cf5,"5.85Ξ ($2,124)","Sep 28, 2020",5.85,2124,2020-09-28
2907,Sold,Carlini8,CPyrc,"5.10Ξ ($1,852)","Sep 28, 2020",5.1,1852,2020-09-28
2907,Sold,redlione…,Carlini8,"4.99Ξ ($1,793)","Sep 28, 2020",4.99,1793,2020-09-28
2907,Sold,0x11c9a7,redlione…,"4.20Ξ ($1,503)","Sep 28, 2020",4.2,1503,2020-09-28
2907,Sold,itsfine,0x11c9a7,"3.90Ξ ($1,395)","Sep 28, 2020",3.9,1395,2020-09-28
2907,Sold,GoWest23,itsfine,"2.95Ξ ($1,040)","Sep 26, 2020",2.95,1040,2020-09-26
2907,Sold,0x12cce1,GoWest23,0.35Ξ ($61),"May 06, 2019",0.35,61,2019-05-06
2907,Sold,0xbc081c,0x6f72f2,0.15Ξ ($43),"Nov 02, 2017",0.15,43,2017-11-02
2911,Sold,0xa3cb30,1611480,"11.50Ξ ($20,992)","Feb 14, 2021",11.5,20992,2021-02-14
2912,Sold,12322844,2672791,0.50Ξ ($103),"Jul 13, 2017",0.5,103,2017-07-13
2913,Sold,12322844,5569574,0.15Ξ ($68),"Dec 08, 2017",0.15,68,2017-12-08
2914,Sold,Pranksy,0x052564,"16Ξ ($30,877)","Apr 01, 2021",16,30877,2021-04-01
2914,Sold,0x90be4e,Pranksy,"10Ξ ($14,325)","Feb 02, 2021",10,14325,2021-02-02
2914,Sold,0x09d408,0x90be4e,"13Ξ ($17,410)","Jan 30, 2021",13,17410,2021-01-30
2914,Sold,0xf1ad94,0x09d408,"10Ξ ($12,675)","Jan 27, 2021",10,12675,2021-01-27
2915,Sold,509418,7348023,"9.89Ξ ($17,012)","Feb 15, 2021",9.89,17012,2021-02-15
2915,Sold,10734384,509418,"8.99Ξ ($16,406)","Feb 14, 2021",8.99,16406,2021-02-14
2916,Sold,2367319,337252,"15Ξ ($28,947)","Apr 01, 2021",15,28947,2021-04-01
2916,Sold,10734384,2367319,"19.50Ξ ($35,949)","Mar 30, 2021",19.5,35949,2021-03-30
2916,Sold,5331586,48543,0.15Ξ ($44),"Jun 29, 2017",0.15,44,2017-06-29
2917,Sold,14215174,5772875,0.18Ξ ($55),"Aug 12, 2017",0.18,55,2017-08-12
2917,Sold,12322844,14215174,0.30Ξ ($58),"Jul 19, 2017",0.3,58,2017-07-19
2918,Sold,0xc272ed,13621708,"34Ξ ($54,731)","Mar 03, 2021",34,54731,2021-03-03
2919,Sold,Hemba,0xa163a1,1.75Ξ ($385),"May 29, 2020",1.75,385,2020-05-29
2920,Sold,0xe1ef5d,0xd3cd15,"6.89Ξ ($9,315)","Jan 28, 2021",6.89,9315,2021-01-28
2920,Sold,Pranksy,JayDelay,1.50Ξ ($554),"Sep 11, 2020",1.5,554,2020-09-11
2920,Sold,natealex,Pranksy,1.42Ξ ($525),"Sep 11, 2020",1.42,525,2020-09-11
2920,Sold,Pranksy,natealex,1.25Ξ ($455),"Sep 11, 2020",1.25,455,2020-09-11
2920,Sold,TweetyPi…,Pranksy,1.49Ξ ($304),"May 26, 2020",1.49,304,2020-05-26
2920,Sold,Hemba,TweetyPi…,1.20Ξ ($238),"May 21, 2020",1.2,238,2020-05-21
2921,Sold,0x471ccd,0xefdfa0,"22Ξ ($38,635)","Mar 13, 2021",22,38635,2021-03-13
2921,Sold,FunBum69,0x4e7b8d,"12.85Ξ ($23,874)","Feb 18, 2021",12.85,23874,2021-02-18
2921,Sold,Hemba,BumFun69,1.35Ξ ($322),"Jun 01, 2020",1.35,322,2020-06-01
2924,Sold,0x4dcaf3,DANNY,"150Ξ ($71,403)","Nov 13, 2020",150,71403,2020-11-13
2924,Sold,0xd8e806,0x4dcaf3,"7Ξ ($1,438)","Jul 13, 2017",7,1438,2017-07-13
2924,Sold,test123.…,0xd8e806,5Ξ ($953),"Jul 11, 2017",5,953,2017-07-11
2925,Sold,0xa3cb30,11268359,"16.50Ξ ($34,909)","Apr 05, 2021",16.5,34909,2021-04-05
2926,Sold,10734384,4112516,"7.45Ξ ($13,538)","Feb 13, 2021",7.45,13538,2021-02-13
2927,Sold,Thing,DANNY,"11.95Ξ ($4,052)","Oct 07, 2020",11.95,4052,2020-10-07
2927,Sold,0xa3cb30,Thing,"7Ξ ($2,373)","Oct 07, 2020",7,2373,2020-10-07
2928,Sold,10734384,7182894,"6.50Ξ ($6,757)","Jan 05, 2021",6.5,6757,2021-01-05
2929,Sold,12545231,15881823,"4.85Ξ ($5,232)","Jan 12, 2021",4.85,5232,2021-01-12
2929,Sold,8336736,12545231,"3.49Ξ ($2,185)","Dec 22, 2020",3.49,2185,2020-12-22
2929,Sold,14966261,8336736,0.25Ξ ($24),"Dec 17, 2018",0.25,24,2018-12-17
2930,Sold,10734384,1633948,"19Ξ ($35,027)","Mar 30, 2021",19,35027,2021-03-30
2935,Sold,0x00d7c9,Snowfro,1Ξ ($143),"Mar 30, 2019",1,143,2019-03-30
2936,Sold,Hemba,7hats,0.35Ξ ($39),"Jan 27, 2019",0.35,39,2019-01-27
2937,Sold,0xb6be4d,0x298f99,"22.22Ξ ($42,502)","Mar 13, 2021",22.22,42502,2021-03-13
2937,Sold,0x0c1fee,0xb6be4d,"13Ξ ($24,624)","Feb 21, 2021",13,24624,2021-02-21
2937,Sold,0xb6be4d,0x0c1fee,"13.70Ξ ($27,275)","Feb 20, 2021",13.7,27275,2021-02-20
2937,Sold,MadMax,0xb6be4d,"12.99Ξ ($24,696)","Feb 18, 2021",12.99,24696,2021-02-18
2937,Sold,0x517fe8,MadMax,"10.99Ξ ($20,356)","Feb 17, 2021",10.99,20356,2021-02-17
2937,Sold,CPyrc,0x517fe8,"5.99Ξ ($3,906)","Dec 27, 2020",5.99,3906,2020-12-27
2937,Sold,0x13816f,CPyrc,"5.25Ξ ($1,996)","Oct 15, 2020",5.25,1996,2020-10-15
2937,Sold,MANAmans…,0x13816f,"5.60Ξ ($1,946)","Oct 03, 2020",5.6,1946,2020-10-03
2937,Sold,jmg,MANAmans…,"4.89Ξ ($1,749)","Sep 28, 2020",4.89,1749,2020-09-28
2937,Sold,Korniej,jmg,"3.70Ξ ($1,280)","Sep 24, 2020",3.7,1280,2020-09-24
2937,Sold,0xef764b…,Korniej,"2.90Ξ ($1,066)","Sep 20, 2020",2.9,1066,2020-09-20
2937,Sold,Michel_M…,0xef764b…,2.05Ξ ($755),"Sep 16, 2020",2.05,755,2020-09-16
2937,Sold,Pranksy,Michel_M…,1.29Ξ ($292),"Jun 30, 2020",1.29,292,2020-06-30
2937,Sold,0xe96c3e,Pranksy,0.95Ξ ($190),"May 15, 2020",0.95,190,2020-05-15
2937,Sold,Hemba,el,0.35Ξ ($41),"Jan 25, 2019",0.35,41,2019-01-25
2938,Sold,0x5462de,7435267,1.58Ξ ($381),"Jul 07, 2017",1.58,381,2017-07-07
2939,Sold,Deeze,0x516358,"16Ξ ($33,265)","Apr 04, 2021",16,33265,2021-04-04
2939,Sold,gaus,0x0154d2,1.50Ξ ($520),"Oct 04, 2020",1.5,520,2020-10-04
2939,Sold,0x11c9a7,gaus,"3.40Ξ ($1,219)","Sep 28, 2020",3.4,1219,2020-09-28
2939,Sold,0x5aaeb9,0x11c9a7,"3Ξ ($1,062)","Sep 27, 2020",3,1062,2020-09-27
2939,Sold,0x067034,0x5aaeb9,"2.85Ξ ($1,008)","Sep 26, 2020",2.85,1008,2020-09-26
2939,Sold,Carlini8,0x067034,2.40Ξ ($908),"Sep 19, 2020",2.4,908,2020-09-19
2939,Sold,Pranksy,Carlini8,1.80Ξ ($678),"Sep 14, 2020",1.8,678,2020-09-14
2939,Sold,Hemba,Pranksy,1.33Ξ ($487),"Sep 11, 2020",1.33,487,2020-09-11
2940,Sold,0xcbd482,sov,0.41Ξ ($84),"Jul 10, 2017",0.41,84,2017-07-10
2941,Sold,Hemba,PB,0.35Ξ ($48),"Mar 24, 2019",0.35,48,2019-03-24
2942,Sold,taneleer…,0x20af8c,"37.40Ξ ($58,522)","Feb 23, 2021",37.4,58522,2021-02-23
2942,Sold,0x84c920,taneleer…,"26Ξ ($37,763)","Feb 23, 2021",26,37763,2021-02-23
2942,Sold,0x07c5ea,0x84c920,"15.75Ξ ($30,898)","Feb 21, 2021",15.75,30898,2021-02-21
2942,Sold,0x422fac,0x07c5ea,"15Ξ ($27,510)","Feb 17, 2021",15,27510,2021-02-17
2942,Sold,0xc69ae4,0xe5e771,"9.98Ξ ($3,612)","Sep 28, 2020",9.98,3612,2020-09-28
2942,Sold,0x27c79a,0xc69ae4,"3.45Ξ ($1,301)","Sep 14, 2020",3.45,1301,2020-09-14
2942,Sold,scalynel…,0x27c79a,2Ξ ($403),"May 26, 2020",2,403,2020-05-26
2942,Sold,j1mmy,scalynel…,1Ξ ($144),"Jan 13, 2020",1,144,2020-01-13
2942,Sold,Hemba,j1mmy,0.35Ξ ($61),"Apr 07, 2019",0.35,61,2019-04-07
2943,Sold,Hemba,Hans,1.19Ξ ($242),"May 22, 2020",1.19,242,2020-05-22
2944,Sold,akrav.et…,0x67c443,"14.75Ξ ($29,011)","Feb 19, 2021",14.75,29011,2021-02-19
2944,Sold,0xf1b658,evkort,"4.50Ξ ($5,252)","Jan 16, 2021",4.5,5252,2021-01-16
2944,Sold,moderats,0x5b331e,"4.40Ξ ($5,275)","Jan 06, 2021",4.4,5275,2021-01-06
2944,Sold,0x11c9a7,moderats,2.22Ξ ($828),"Sep 14, 2020",2.22,828,2020-09-14
2944,Sold,Pranksy,0x11c9a7,1.90Ξ ($709),"Sep 14, 2020",1.9,709,2020-09-14
2944,Sold,Michel_M…,Pranksy,1.80Ξ ($678),"Sep 14, 2020",1.8,678,2020-09-14
2944,Sold,cryptosa…,Michel_M…,1.32Ξ ($496),"Sep 14, 2020",1.32,496,2020-09-14
2944,Sold,0x1a96af,cryptosa…,1.34Ξ ($297),"May 29, 2020",1.34,297,2020-05-29
2945,Sold,Hemba,0x717403,0.06Ξ ($28),"Nov 26, 2017",0.06,28,2017-11-26
2946,Sold,Hemba,Kenney,0.14Ξ ($161),"Jan 20, 2018",0.14,161,2018-01-20
2947,Sold,alphab.e…,0x5cde15,"15.10Ξ ($30,224)","Feb 20, 2021",15.1,30224,2021-02-20
2947,Sold,MT1000,alphab.e…,"14Ξ ($27,463)","Feb 20, 2021",14,27463,2021-02-20
2947,Sold,0x422fac,MT1000,"7.75Ξ ($14,170)","Feb 14, 2021",7.75,14170,2021-02-14
2947,Sold,0x927635,0xe5e771,"3Ξ ($1,069)","Sep 25, 2020",3,1069,2020-09-25
2947,Sold,0xc9ab58,0x927635,2.29Ξ ($770),"Sep 24, 2020",2.29,770,2020-09-24
2947,Sold,Michel_M…,0xc9ab58,2.18Ξ ($715),"Sep 23, 2020",2.18,715,2020-09-23
2947,Sold,Carlini8,Michel_M…,2Ξ ($657),"Sep 23, 2020",2,657,2020-09-23
2947,Sold,Hemba,Carlini8,1.40Ξ ($526),"Sep 14, 2020",1.4,526,2020-09-14
2948,Sold,0x196a3d,0xb67d92,"8.15Ξ ($2,796)","Oct 02, 2020",8.15,2796,2020-10-02
2948,Sold,therealB…,0x196a3d,1.90Ξ ($717),"Sep 14, 2020",1.9,717,2020-09-14
2948,Sold,Hemba,therealB…,1Ξ ($386),"Aug 26, 2020",1,386,2020-08-26
2949,Sold,NFTinTin,Liber8Ho…,"12.12Ξ ($4,454)","Oct 17, 2020",12.12,4454,2020-10-17
2949,Sold,0xfb077c,NFTinTin,1Ξ ($130),"Jan 02, 2020",1,130,2020-01-02
2950,Sold,0xa7eba7,14916459,"13.90Ξ ($19,010)","Jan 31, 2021",13.9,19010,2021-01-31
2952,Sold,Hemba,0x7760e0,0.25Ξ ($98),"Sep 01, 2017",0.25,98,2017-09-01
2953,Sold,0x257e2b,vengist,"6.99Ξ ($2,460)","Oct 08, 2020",6.99,2460,2020-10-08
2953,Sold,0x624394,0x257e2b,"4.90Ξ ($1,669)","Oct 07, 2020",4.9,1669,2020-10-07
2953,Sold,GoWest23,0x624394,"3.99Ξ ($1,386)","Sep 25, 2020",3.99,1386,2020-09-25
2953,Sold,0x00d7c9,GoWest23,1Ξ ($169),"May 07, 2019",1,169,2019-05-07
2956,Sold,Zonked,0x850bb0,"4.89Ξ ($5,931)","Jan 07, 2021",4.89,5931,2021-01-07
2956,Sold,0x31f02e,0x568cf5,"5.80Ξ ($2,052)","Sep 29, 2020",5.8,2052,2020-09-29
2956,Sold,Hemba,0x31f02e,0.90Ξ ($300),"Sep 07, 2020",0.9,300,2020-09-07
2957,Sold,Hemba,0x7c9b3f,0.55Ξ ($137),"Jun 03, 2019",0.55,137,2019-06-03
2959,Sold,sov,0xf40b3d,3Ξ ($981),"Sep 24, 2020",3,981,2020-09-24
2959,Sold,Hemba,sov,0.08Ξ ($38),"Nov 26, 2017",0.08,38,2017-11-26
2960,Sold,12196282,1232817,"17Ξ ($30,857)","Feb 13, 2021",17,30857,2021-02-13
2961,Sold,Hemba,Kenney,0.15Ξ ($57),"Apr 04, 2018",0.15,57,2018-04-04
2963,Sold,7650826,11268359,"17.99Ξ ($35,665)","Apr 08, 2021",17.99,35665,2021-04-08
2963,Sold,1723665,7650826,"19Ξ ($33,780)","Mar 21, 2021",19,33780,2021-03-21
2963,Sold,1700403,1723665,"19.79Ξ ($36,156)","Mar 20, 2021",19.79,36156,2021-03-20
2964,Sold,0x8ba3e2,TokenAng…,"15.50Ξ ($3,175)","May 14, 2020",15.5,3175,2020-05-14
2965,Sold,j1mmy,0xec4b06,"3.19Ξ ($1,122)","Sep 27, 2020",3.19,1122,2020-09-27
2965,Sold,Hemba,j1mmy,1.40Ξ ($511),"Sep 14, 2020",1.4,511,2020-09-14
2966,Sold,15423625,3405896,0.20Ξ ($38),"Oct 11, 2018",0.2,38,2018-10-11
2966,Sold,8533182,15423625,0.20Ξ ($137),"Dec 15, 2017",0.2,137,2017-12-15
2967,Sold,5530334,9218204,"2.25Ξ ($1,561)","Dec 14, 2017",2.25,1561,2017-12-14
2968,Sold,0x257e2b,0x_NFT,"6Ξ ($2,252)","Oct 19, 2020",6,2252,2020-10-19
2968,Sold,0x95318b,0x257e2b,"6.40Ξ ($2,385)","Oct 15, 2020",6.4,2385,2020-10-15
2968,Sold,tstorm.e…,0x95318b,"5Ξ ($1,788)","Sep 28, 2020",5,1788,2020-09-28
2969,Sold,Hemba,Cryptokk…,0.52Ξ ($78),"Feb 20, 2019",0.52,78,2019-02-20
2970,Sold,0x13816f,0x577ebc,"9.72Ξ ($17,826)","Feb 17, 2021",9.72,17826,2021-02-17
2970,Sold,0xe754d1,0x13816f,"4.80Ξ ($1,690)","Oct 02, 2020",4.8,1690,2020-10-02
2970,Sold,MrNFT,0xe754d1,"3.44Ξ ($1,232)","Sep 28, 2020",3.44,1232,2020-09-28
2970,Sold,cryptoke…,MrNFT,"3.10Ξ ($1,091)","Sep 27, 2020",3.1,1091,2020-09-27
2970,Sold,0xf4239e,cryptoke…,"3Ξ ($1,071)","Sep 27, 2020",3,1071,2020-09-27
2970,Sold,Hemba,0xf4239e,2.30Ξ ($795),"Sep 24, 2020",2.3,795,2020-09-24
2971,Sold,0x13816f,0xa4b120,"24.50Ξ ($43,730)","Mar 12, 2021",24.5,43730,2021-03-12
2971,Sold,0x3ba9cd,0x13816f,"3.15Ξ ($1,114)","Sep 27, 2020",3.15,1114,2020-09-27
2971,Sold,Carlini8,0x3ba9cd,2Ξ ($678),"Sep 23, 2020",2,678,2020-09-23
2971,Sold,Hemba,Carlini8,1.50Ξ ($564),"Sep 14, 2020",1.5,564,2020-09-14
2972,Sold,Hemba,ross_VRO…,1.20Ξ ($242),"May 22, 2020",1.2,242,2020-05-22
2975,Sold,taneleer…,0x1e243e,"27.20Ξ ($42,214)","Feb 23, 2021",27.2,42214,2021-02-23
2975,Sold,0x382681,taneleer…,"21.50Ξ ($40,990)","Feb 21, 2021",21.5,40990,2021-02-21
2975,Sold,0x334e22,0x382681,"14.99Ξ ($30,004)","Feb 20, 2021",14.99,30004,2021-02-20
2975,Sold,Hemba,0x334e22,0.12Ξ ($16),"Nov 20, 2018",0.12,16,2018-11-20
2976,Sold,0x62bdc6,0x50664e,"18.97Ξ ($34,389)","Mar 11, 2021",18.97,34389,2021-03-11
2976,Sold,wookie.e…,0x62bdc6,"17.49Ξ ($31,112)","Mar 11, 2021",17.49,31112,2021-03-11
2976,Sold,MadMax,0x568cf5,"5.55Ξ ($2,015)","Sep 28, 2020",5.55,2015,2020-09-28
2976,Sold,cryptoke…,MadMax,"5.10Ξ ($1,852)","Sep 28, 2020",5.1,1852,2020-09-28
2976,Sold,GoWest23,cryptoke…,"4.75Ξ ($1,699)","Sep 28, 2020",4.75,1699,2020-09-28
2976,Sold,Hemba,GoWest23,0.44Ξ ($76),"May 06, 2019",0.44,76,2019-05-06
2977,Sold,Hemba,Kenney,0.15Ξ ($57),"Apr 04, 2018",0.15,57,2018-04-04
2978,Sold,7293485,12502685,"41Ξ ($84,619)","Apr 08, 2021",41,84619,2021-04-08
2979,Sold,heeee.et…,0xdce099,"7.99Ξ ($14,455)","Feb 14, 2021",7.99,14455,2021-02-14
2979,Sold,0x033ee7,heeee.et…,"6.34Ξ ($11,804)","Feb 13, 2021",6.34,11804,2021-02-13
2979,Sold,MrNFT,0x033ee7,2.89Ξ ($999),"Sep 24, 2020",2.89,999,2020-09-24
2979,Sold,Pranksy,MrNFT,2.19Ξ ($757),"Sep 24, 2020",2.19,757,2020-09-24
2979,Sold,Hemba,Pranksy,1.80Ξ ($613),"Sep 22, 2020",1.8,613,2020-09-22
2980,Sold,heeee.et…,0xebf1db,"30Ξ ($53,967)","Mar 21, 2021",30,53967,2021-03-21
2980,Sold,0x19f233,heeee.et…,"27.37Ξ ($49,004)","Mar 18, 2021",27.37,49004,2021-03-18
2981,Sold,scalynel…,0xca37d8,"47Ξ ($97,837)","Apr 09, 2021",47,97837,2021-04-09
2981,Sold,PB,scalynel…,"22.50Ξ ($41,891)","Feb 13, 2021",22.5,41891,2021-02-13
2981,Sold,0x470e9b,PB,"5Ξ ($1,071)","May 19, 2020",5,1071,2020-05-19
2982,Sold,NFTinTin,CryptoNo…,"12.55Ξ ($4,356)","Oct 03, 2020",12.55,4356,2020-10-03
2982,Sold,Pranksy,NFTinTin,0.50Ξ ($76),"Dec 08, 2019",0.5,76,2019-12-08
2982,Sold,0x00d7c9,Pranksy,0.40Ξ ($109),"Jun 20, 2019",0.4,109,2019-06-20
2983,Sold,Hemba,0x7132c9,0.42Ξ ($95),"Jul 18, 2017",0.42,95,2017-07-18
2984,Sold,MadMax,TheNat,"10.50Ξ ($19,324)","Feb 14, 2021",10.5,19324,2021-02-14
2984,Sold,EliteCat…,MadMax,"8.25Ξ ($13,497)","Feb 07, 2021",8.25,13497,2021-02-07
2984,Sold,Hemba,GoWest23,0.55Ξ ($73),"Jan 04, 2020",0.55,73,2020-01-04
2986,Sold,0x13816f,0xec46dd,"8.88Ξ ($16,049)","Feb 15, 2021",8.88,16049,2021-02-15
2986,Sold,0xe754d1,0x13816f,"4.80Ξ ($1,690)","Oct 02, 2020",4.8,1690,2020-10-02
2986,Sold,cryptoke…,0xe754d1,"3.39Ξ ($1,203)","Sep 27, 2020",3.39,1203,2020-09-27
2986,Sold,0x3ba9cd,cryptoke…,"3.15Ξ ($1,120)","Sep 27, 2020",3.15,1120,2020-09-27
2986,Sold,Carlini8,0x3ba9cd,2Ξ ($679),"Sep 23, 2020",2,679,2020-09-23
2986,Sold,Hemba,Carlini8,1.50Ξ ($564),"Sep 14, 2020",1.5,564,2020-09-14
2987,Sold,Hemba,Raichide…,0.12Ξ ($14),"Nov 26, 2018",0.12,14,2018-11-26
2989,Sold,redlione…,0x6feeb0,"21.47Ξ ($38,993)","Mar 12, 2021",21.47,38993,2021-03-12
2989,Sold,0xc40913,redlione…,"19.50Ξ ($35,214)","Mar 11, 2021",19.5,35214,2021-03-11
2989,Sold,0x40e5e9,0xc40913,"19.50Ξ ($35,071)","Mar 11, 2021",19.5,35071,2021-03-11
2989,Sold,0x810e09,0x5bb4ff,"23.77Ξ ($42,386)","Feb 22, 2021",23.77,42386,2021-02-22
2989,Sold,Hemba,0x810e09,0.12Ξ ($14),"Nov 24, 2018",0.12,14,2018-11-24
2991,Sold,0x005700,mammal,0.07Ξ ($32),"Dec 03, 2017",0.07,32,2017-12-03
2994,Sold,0xa80be8…,digitalo…,"8.50Ξ ($10,921)","Jan 27, 2021",8.5,10921,2021-01-27
2994,Sold,Hemba,0xa80be8…,0.16Ξ ($62),"Apr 02, 2018",0.16,62,2018-04-02
2995,Sold,jmg,0x0601d0,2Ξ ($401),"May 16, 2020",2,401,2020-05-16
2995,Sold,Hemba,jmg,1.15Ξ ($191),"Jan 26, 2020",1.15,191,2020-01-26
2996,Sold,Hemba,0xea94c9,0.16Ξ ($30),"Oct 11, 2018",0.16,30,2018-10-11
2997,Sold,7047340,6689278,0.90Ξ ($177),"Jul 14, 2017",0.9,177,2017-07-14
2997,Sold,15808747,7047340,0.10Ξ ($28),"Jun 25, 2017",0.1,28,2017-06-25
2998,Sold,oref,0xc5b4e3,2.80Ξ ($983),"Sep 24, 2020",2.8,983,2020-09-24
2998,Sold,0xf28820,oref,2.45Ξ ($848),"Sep 24, 2020",2.45,848,2020-09-24
2998,Sold,ross_VRO…,0xf28820,2Ξ ($678),"Sep 23, 2020",2,678,2020-09-23
2998,Sold,CPyrc,ross_VRO…,1.45Ξ ($545),"Sep 14, 2020",1.45,545,2020-09-14
2998,Sold,Pranksy,CPyrc,1.25Ξ ($455),"Sep 11, 2020",1.25,455,2020-09-11
2998,Sold,TheCoolA…,Pranksy,1.09Ξ ($397),"Sep 11, 2020",1.09,397,2020-09-11
2998,Sold,Michel_M…,0xb4c40c,0.85Ξ ($293),"Sep 07, 2020",0.85,293,2020-09-07
2998,Sold,ManOverb…,Michel_M…,0.94Ξ ($317),"Jul 30, 2020",0.94,317,2020-07-30
2998,Sold,TweetyPi…,ManOverb…,0.99Ξ ($232),"Jun 17, 2020",0.99,232,2020-06-17
2998,Sold,Hemba,TweetyPi…,1.40Ξ ($285),"May 26, 2020",1.4,285,2020-05-26
2999,Sold,0x54e70a,0x0dd273,"20.48Ξ ($32,643)","Mar 24, 2021",20.48,32643,2021-03-24
2999,Sold,0xdde0b7,0x54e70a,"20.50Ξ ($34,839)","Mar 23, 2021",20.5,34839,2021-03-23
2999,Sold,0xbae25a,0xdde0b7,"19.50Ξ ($32,844)","Mar 22, 2021",19.5,32844,2021-03-22
2999,Sold,444.eth,0xdffbaf,"4.40Ξ ($1,512)","Oct 08, 2020",4.4,1512,2020-10-08
2999,Sold,0xe754d1,444.eth,"5.30Ξ ($1,870)","Oct 02, 2020",5.3,1870,2020-10-02
2999,Sold,0xf4239e,0xe754d1,"3Ξ ($1,065)","Sep 27, 2020",3,1065,2020-09-27
2999,Sold,Hemba,0xf4239e,2.30Ξ ($796),"Sep 24, 2020",2.3,796,2020-09-24
3000,Sold,6666831,7017111,"13.85Ξ ($26,554)","Feb 20, 2021",13.85,26554,2021-02-20
3000,Sold,11642997,6666831,"12Ξ ($23,038)","Feb 19, 2021",12,23038,2021-02-19
3000,Sold,10734384,11642997,"7.10Ξ ($12,440)","Feb 11, 2021",7.1,12440,2021-02-11
3001,Sold,6249972,1710116,"23.99Ξ ($42,879)","Mar 15, 2021",23.99,42879,2021-03-15
3002,Sold,Cyborg,0xde03d3,0.20Ξ ($41),"Nov 13, 2018",0.2,41,2018-11-13
3002,Sold,0xd8e806,Cyborg,0.18Ξ ($55),"Aug 12, 2017",0.18,55,2017-08-12
3002,Sold,0xbc081c,0xd8e806,0.30Ξ ($58),"Jul 19, 2017",0.3,58,2017-07-19
3003,Sold,337252,13142280,"24.50Ξ ($37,420)","Feb 23, 2021",24.5,37420,2021-02-23
3003,Sold,12322844,14215174,0.30Ξ ($58),"Jul 19, 2017",0.3,58,2017-07-19
3004,Sold,0xa3cb30,11421942,"19.50Ξ ($36,136)","Mar 30, 2021",19.5,36136,2021-03-30
3007,Sold,0x6611fe,6167352,"45Ξ ($84,090)","Mar 10, 2021",45,84090,2021-03-10
3008,Sold,0x84c920,renaissa…,"32Ξ ($49,948)","Feb 24, 2021",32,49948,2021-02-24
3008,Sold,0xd3e2e7,0x84c920,"26.60Ξ ($51,204)","Feb 21, 2021",26.6,51204,2021-02-21
3008,Sold,0xa3cb30,0xd3e2e7,"18.50Ξ ($35,259)","Feb 18, 2021",18.5,35259,2021-02-18
3009,Sold,337252,7348023,"99Ξ ($157,029)","Feb 25, 2021",99,157029,2021-02-25
3010,Sold,Pixls,0xc2cf71,0.60Ξ ($85),"Mar 16, 2019",0.6,85,2019-03-16
3010,Sold,0x0af8cc,Pixls,0.19Ξ ($27),"Dec 30, 2018",0.19,27,2018-12-30
3010,Sold,0x00d7c9,0x0af8cc,0.05Ξ ($25),"Jun 12, 2018",0.05,25,2018-06-12
3011,Sold,TokenAng…,0xc05488,"400Ξ ($726,460)","Mar 12, 2021",400,726460,2021-03-12
3011,Sold,Alex3422,TokenAng…,"42Ξ ($16,291)","Oct 12, 2020",42,16291,2020-10-12
3011,Sold,0xa3cb30,Alex3422,"23Ξ ($7,843)","Oct 07, 2020",23,7843,2020-10-07
3013,Sold,DANNY,Wilcox,0.99Ξ ($329),"Jul 31, 2020",0.99,329,2020-07-31
3013,Sold,Hemba,DANNY,0.90Ξ ($182),"May 14, 2020",0.9,182,2020-05-14
3015,Sold,0x1da533,hellogar…,"60Ξ ($109,544)","Feb 14, 2021",60,109544,2021-02-14
3015,Sold,0xeb9191,DANNY,"7Ξ ($2,681)","Aug 25, 2020",7,2681,2020-08-25
3015,Sold,0x470e9b,0x4c1bd9…,1.25Ξ ($292),"May 18, 2019",1.25,292,2019-05-18
3018,Sold,0xddfdcb,4388805,"25.99Ξ ($44,549)","Mar 24, 2021",25.99,44549,2021-03-24
3018,Sold,0x5b098b,14548427,"21.90Ξ ($42,789)","Feb 21, 2021",21.9,42789,2021-02-21
3020,Sold,6175377,13200871,"24.20Ξ ($38,213)","Mar 02, 2021",24.2,38213,2021-03-02
3020,Sold,12743405,6175377,"23Ξ ($33,001)","Mar 01, 2021",23,33001,2021-03-01
3022,Sold,1700403,5333869,"47Ξ ($83,606)","Mar 11, 2021",47,83606,2021-03-11
3023,Sold,Hemba,snax,1.40Ξ ($524),"Sep 11, 2020",1.4,524,2020-09-11
3025,Sold,6249972,0xde6c0f,"23.99Ξ ($36,571)","Mar 04, 2021",23.99,36571,2021-03-04
3028,Sold,0x09d408,DANNY,"15Ξ ($20,230)","Jan 30, 2021",15,20230,2021-01-30
3028,Sold,Novo311,0x09d408,"9.98Ξ ($12,650)","Jan 27, 2021",9.98,12650,2021-01-27
3028,Sold,0xa3cb30,Novo311,"6.10Ξ ($2,225)","Oct 16, 2020",6.1,2225,2020-10-16
3029,Sold,Hemba,Kenney,0.17Ξ ($196),"Jan 20, 2018",0.17,196,2018-01-20
3030,Sold,ddaavvee,0x661c12,"30Ξ ($49,157)","Feb 24, 2021",30,49157,2021-02-24
3033,Sold,0xc2b3cb,0x9acbb5,"22.90Ξ ($39,976)","Mar 12, 2021",22.9,39976,2021-03-12
3033,Sold,0xfc2a61,0xc2b3cb,"21Ξ ($38,649)","Mar 11, 2021",21,38649,2021-03-11
3033,Sold,Zonked,0xdac01f,"5.50Ξ ($9,450)","Feb 08, 2021",5.5,9450,2021-02-08
3033,Sold,0x033ee7,Zonked,"4.16Ξ ($5,204)","Jan 23, 2021",4.16,5204,2021-01-23
3033,Sold,Michel_M…,0x033ee7,2.49Ξ ($861),"Sep 24, 2020",2.49,861,2020-09-24
3033,Sold,Pranksy,Michel_M…,2.19Ξ ($757),"Sep 24, 2020",2.19,757,2020-09-24
3033,Sold,Hemba,Pranksy,1.80Ξ ($613),"Sep 22, 2020",1.8,613,2020-09-22
3034,Sold,0x45ea36,simontay…,"4.25Ξ ($1,549)","Oct 09, 2020",4.25,1549,2020-10-09
3034,Sold,Hemba,0x334e22,0.12Ξ ($16),"Nov 20, 2018",0.12,16,2018-11-20
3037,Sold,Hemba,0x8ca89c,0.12Ξ ($83),"Dec 14, 2017",0.12,83,2017-12-14
3039,Sold,j1mmy,0x727fb8,"8.99Ξ ($3,280)","Sep 28, 2020",8.99,3280,2020-09-28
3039,Sold,0x996737,j1mmy,1Ξ ($176),"Apr 07, 2019",1,176,2019-04-07
3040,Sold,8533182,10362432,0.10Ξ ($85),"Feb 23, 2018",0.1,85,2018-02-23
3041,Sold,Hemba,Kenney,0.14Ξ ($161),"Jan 20, 2018",0.14,161,2018-01-20
3042,Sold,0xd3e2e7,0xdaef5b,"14Ξ ($26,682)","Feb 18, 2021",14,26682,2021-02-18
3042,Sold,robers,0xd3e2e7,"8.76Ξ ($15,796)","Feb 16, 2021",8.76,15796,2021-02-16
3042,Sold,0x45ea36,0x257e2b,"4.40Ξ ($1,639)","Oct 11, 2020",4.4,1639,2020-10-11
3042,Sold,Hemba,0x334e22,0.12Ξ ($16),"Nov 20, 2018",0.12,16,2018-11-20
3044,Sold,MrTpunks,0x68a7ac,"18Ξ ($35,269)","Feb 21, 2021",18,35269,2021-02-21
3044,Sold,0xfb3ca8,MrTpunks,"6Ξ ($2,146)","Sep 28, 2020",6,2146,2020-09-28
3044,Sold,Ambrose,0xfb3ca8,0.80Ξ ($312),"Aug 22, 2020",0.8,312,2020-08-22
3044,Sold,0x1a96af,Ambrose,1.55Ξ ($375),"Jun 06, 2020",1.55,375,2020-06-06
3045,Sold,14966261,45688,0.33Ξ ($91),"Jul 03, 2017",0.33,91,2017-07-03
3046,Sold,Hemba,0xc352b5,0.28Ξ ($54),"Oct 11, 2018",0.28,54,2018-10-11
3047,Sold,redlione…,stack85,"6.20Ξ ($2,174)","Oct 03, 2020",6.2,2174,2020-10-03
3047,Sold,0xa61214,redlione…,"5.50Ξ ($1,911)","Oct 03, 2020",5.5,1911,2020-10-03
3048,Sold,0x27c79a,0x845ddd,"27Ξ ($47,250)","Mar 17, 2021",27,47250,2021-03-17
3048,Sold,Ajiyl,0x27c79a,0.50Ξ ($72),"Jan 07, 2020",0.5,72,2020-01-07
3048,Sold,0xb6be4d,Ajiyl,0.09Ξ ($42),"Dec 03, 2017",0.09,42,2017-12-03
3049,Sold,Deeze,0xe9e7b8,"7.19Ξ ($3,429)","Nov 19, 2020",7.19,3429,2020-11-19
3049,Sold,0xa3cb30,Deeze,"7Ξ ($2,387)","Oct 07, 2020",7,2387,2020-10-07
3050,Sold,7293485,5642118,"22Ξ ($41,313)","Feb 22, 2021",22,41313,2021-02-22
3054,Sold,0x45ea36,0x6130d3,"4.88Ξ ($5,958)","Jan 09, 2021",4.88,5958,2021-01-09
3054,Sold,Hemba,0x334e22,0.12Ξ ($16),"Nov 20, 2018",0.12,16,2018-11-20
3056,Sold,0x8bb4f3,evantan.…,"25Ξ ($36,203)","Feb 27, 2021",25,36203,2021-02-27
3056,Sold,0x09d408,0x8bb4f3,"6.50Ξ ($10,991)","Feb 06, 2021",6.5,10991,2021-02-06
3056,Sold,0x565496,0x09d408,"5.50Ξ ($6,971)","Jan 27, 2021",5.5,6971,2021-01-27
3056,Sold,0x63d325,0x565496,"3.50Ξ ($1,622)","Nov 07, 2020",3.5,1622,2020-11-07
3056,Sold,Hemba,0x42306d,0.70Ξ ($158),"Feb 28, 2020",0.7,158,2020-02-28
3059,Sold,0xa3cb30,5333848,"16.50Ξ ($34,276)","Apr 04, 2021",16.5,34276,2021-04-04
3060,Sold,Michel_M…,VonMises,"25Ξ ($8,524)","Oct 07, 2020",25,8524,2020-10-07
3060,Sold,0xa3cb30,Michel_M…,"11Ξ ($3,753)","Oct 06, 2020",11,3753,2020-10-06
3062,Sold,0x7eb46d,0x9e199d,0.05Ξ ($46),"Feb 02, 2018",0.05,46,2018-02-02
3062,Sold,Hemba,0x7eb46d,0.10Ξ ($70),"Dec 13, 2017",0.1,70,2017-12-13
3064,Sold,5734076,12008756,"40.99Ξ ($73,635)","Mar 16, 2021",40.99,73635,2021-03-16
3067,Sold,0x69405f,0x568cf5,"5.55Ξ ($1,963)","Sep 29, 2020",5.55,1963,2020-09-29
3067,Sold,GoWest23,0x69405f,"5.40Ξ ($1,915)","Sep 29, 2020",5.4,1915,2020-09-29
3067,Sold,Hemba,GoWest23,0.49Ξ ($65),"Jan 04, 2020",0.49,65,2020-01-04
3069,Sold,Hemba,hedonism…,0.33Ξ ($49),"Feb 22, 2019",0.33,49,2019-02-22
3070,Sold,Hemba,0xc352b5,0.15Ξ ($31),"Oct 23, 2018",0.15,31,2018-10-23
3072,Sold,Hemba,Deepyr,0.35Ξ ($48),"Mar 15, 2019",0.35,48,2019-03-15
3073,Sold,0x3d826e,district…,"5.50Ξ ($4,050)","Jan 01, 2021",5.5,4050,2021-01-01
3073,Sold,0x8234be,0x3d826e,0.09Ξ ($102),"Jan 08, 2018",0.09,102,2018-01-08
3074,Sold,0x98cfea,Cry,"8Ξ ($5,852)","Dec 30, 2020",8,5852,2020-12-30
3075,Sold,Pranksy,BlackKet…,0.79Ξ ($112),"Jan 06, 2020",0.79,112,2020-01-06
3075,Sold,0x00d7c9,Pranksy,0.40Ξ ($118),"Jun 21, 2019",0.4,118,2019-06-21
3077,Sold,5734076,2713166,"54Ξ ($111,373)","Apr 09, 2021",54,111373,2021-04-09
3080,Sold,0xbf6ccf,0x92e5a4,"4.60Ξ ($5,826)","Jan 10, 2021",4.6,5826,2021-01-10
3080,Sold,0x5ebe4c,0xbf6ccf,"4Ξ ($2,491)","Dec 23, 2020",4,2491,2020-12-23
3080,Sold,likeit,0x5ebe4c,"5Ξ ($1,825)","Sep 28, 2020",5,1825,2020-09-28
3080,Sold,CPyrc,likeit,2.79Ξ ($938),"Sep 24, 2020",2.79,938,2020-09-24
3080,Sold,Pranksy,CPyrc,2.19Ξ ($717),"Sep 24, 2020",2.19,717,2020-09-24
3080,Sold,Hemba,Pranksy,1.80Ξ ($613),"Sep 22, 2020",1.8,613,2020-09-22
3081,Sold,0x4dea06,0x7d9e9a,"20Ξ ($43,220)","Apr 10, 2021",20,43220,2021-04-10
3081,Sold,Spilliae…,0x13816f,"5.50Ξ ($1,911)","Oct 03, 2020",5.5,1911,2020-10-03
3081,Sold,ross_VRO…,Spilliae…,"4.50Ξ ($1,549)","Oct 02, 2020",4.5,1549,2020-10-02
3081,Sold,Zieg,ross_VRO…,"3.45Ξ ($1,174)","Sep 25, 2020",3.45,1174,2020-09-25
3081,Sold,Hemba,Zieg,1.40Ξ ($542),"Sep 13, 2020",1.4,542,2020-09-13
3082,Sold,Davicio,0x641cf1,"4.50Ξ ($2,803)","Dec 22, 2020",4.5,2803,2020-12-22
3082,Sold,Hemba,Davicio,1.20Ξ ($242),"May 22, 2020",1.2,242,2020-05-22
3083,Sold,0xf86a58,0x584cdf,"30Ξ ($60,836)","Apr 02, 2021",30,60836,2021-04-02
3083,Sold,0xce6969,0xf86a58,"20.50Ξ ($40,010)","Feb 21, 2021",20.5,40010,2021-02-21
3083,Sold,0xd3e2e7,0xce6969,"20.10Ξ ($39,381)","Feb 20, 2021",20.1,39381,2021-02-20
3083,Sold,0x4960c4…,0xd3e2e7,"19.50Ξ ($37,410)","Feb 18, 2021",19.5,37410,2021-02-18
3083,Sold,0x577ebc,0x4960c4…,"18Ξ ($32,585)","Feb 16, 2021",18,32585,2021-02-16
3084,Sold,5734076,niwin,"27.99Ξ ($50,088)","Mar 12, 2021",27.99,50088,2021-03-12
3085,Sold,0x577ebc,pelvis.e…,"15Ξ ($26,985)","Feb 16, 2021",15,26985,2021-02-16
3086,Sold,0x47d4f2,flim.eth,"25.90Ξ ($41,222)","Feb 25, 2021",25.9,41222,2021-02-25
3086,Sold,Pranksy,gaus,2.89Ξ ($985),"Sep 25, 2020",2.89,985,2020-09-25
3086,Sold,Hemba,Pranksy,2.30Ξ ($796),"Sep 24, 2020",2.3,796,2020-09-24
3091,Sold,0xdae48d,🤹🏻‍♂.e…,"4.44Ξ ($6,048)","Feb 01, 2021",4.44,6048,2021-02-01
3092,Sold,TokenAng…,0x6130d3,"20Ξ ($39,161)","Feb 21, 2021",20,39161,2021-02-21
3092,Sold,0x1a96af,TokenAng…,1.45Ξ ($295),"May 22, 2020",1.45,295,2020-05-22
3094,Sold,Slacktid…,Dude_Nak…,0.50Ξ ($92),"Nov 01, 2019",0.5,92,2019-11-01
3094,Sold,0xf5099e,0x976b59,0.48Ξ ($108),"Oct 02, 2018",0.48,108,2018-10-02
3094,Sold,0xd8e806,0xa0a59c,0.39Ξ ($89),"Jul 18, 2017",0.39,89,2017-07-18
3095,Sold,CPyrc,0x900c9f,"5.99Ξ ($10,465)","Feb 05, 2021",5.99,10465,2021-02-05
3095,Sold,0x656c90,CPyrc,"5Ξ ($8,193)","Feb 03, 2021",5,8193,2021-02-03
3096,Sold,Pranksy,0x4c1bd9…,3.59Ξ ($765),"May 08, 2020",3.59,765,2020-05-08
3096,Sold,0x1a96af,Pranksy,2.49Ξ ($426),"Apr 17, 2020",2.49,426,2020-04-17
3097,Sold,0x023ef7,0x1a1f01,"22.70Ξ ($46,486)","Apr 08, 2021",22.7,46486,2021-04-08
3097,Sold,EliteCat…,0x023ef7,"15.70Ξ ($26,753)","Mar 28, 2021",15.7,26753,2021-03-28
3097,Sold,0x00d7c9,GoWest23,0.50Ξ ($87),"May 06, 2019",0.5,87,2019-05-06
3099,Sold,GoWest23,snax,"4.11Ξ ($1,423)","Sep 25, 2020",4.11,1423,2020-09-25
3099,Sold,Hemba,GoWest23,0.50Ξ ($67),"Jan 04, 2020",0.5,67,2020-01-04
3100,Sold,0x6611fe,0x7b8961,4.2KΞ ($7.58M),"Mar 11, 2021",4200,7580000,2021-03-11
3100,Sold,straybit…,0x6611fe,"8Ξ ($2,127)","Jul 06, 2017",8,2127,2017-07-06
3102,Sold,0xa3cb30,ross_VRO…,"19.90Ξ ($35,521)","Feb 15, 2021",19.9,35521,2021-02-15
3104,Sold,0xe5e64f,Pixls,0.99Ξ ($368),"Sep 10, 2020",0.99,368,2020-09-10
3104,Sold,Unknown7…,0xe5e64f,0.70Ξ ($272),"Aug 04, 2020",0.7,272,2020-08-04
3104,Sold,kxbxlt,Unknown7…,0.79Ξ ($306),"Aug 04, 2020",0.79,306,2020-08-04
3104,Sold,TweetyPi…,kxbxlt,0.99Ξ ($233),"Jun 17, 2020",0.99,233,2020-06-17
3104,Sold,0x0553de,TweetyPi…,1.30Ξ ($264),"May 27, 2020",1.3,264,2020-05-27
3104,Sold,natealex,0x0553de,1.08Ξ ($223),"May 24, 2020",1.08,223,2020-05-24
3104,Sold,Pranksy,natealex,0.65Ξ ($105),"Jan 23, 2020",0.65,105,2020-01-23
3104,Sold,Cyborg,0xd27e3f,0.28Ξ ($57),"Jul 29, 2017",0.28,57,2017-07-29
3106,Sold,0x0e4437,0x3432b4,"240Ξ ($426,355)","Mar 16, 2021",240,426355,2021-03-16
3106,Sold,natealex,0x0e4437,"44Ξ ($72,990)","Feb 05, 2021",44,72990,2021-02-05
3106,Sold,3van.eth,natealex,"29.99Ξ ($37,761)","Jan 24, 2021",29.99,37761,2021-01-24
3106,Sold,EliteCat…,3van.eth,"33.99Ξ ($43,533)","Jan 10, 2021",33.99,43533,2021-01-10
3106,Sold,0x88bd20,GoWest23,"35Ξ ($12,797)","Oct 01, 2020",35,12797,2020-10-01
3106,Sold,0x5aaeb9,0x88bd20,"58Ξ ($20,636)","Sep 30, 2020",58,20636,2020-09-30
3106,Sold,GoWest23,0x5aaeb9,"55Ξ ($20,080)","Sep 28, 2020",55,20080,2020-09-28
3106,Sold,curating…,EliteCat…,5Ξ ($669),"Jan 04, 2020",5,669,2020-01-04
3107,Sold,0x167204,district…,"39Ξ ($47,760)","Jan 09, 2021",39,47760,2021-01-09
3107,Sold,0xa3cb30,2pac,"60Ξ ($36,593)","Dec 25, 2020",60,36593,2020-12-25
3109,Sold,0xddfdcb,15693900,"32.99Ξ ($58,473)","Mar 17, 2021",32.99,58473,2021-03-17
3109,Sold,0xa3cb30,14548427,"13.99Ξ ($25,743)","Feb 17, 2021",13.99,25743,2021-02-17
3110,Sold,14215174,9876623,0.18Ξ ($55),"Aug 12, 2017",0.18,55,2017-08-12
3110,Sold,12322844,14215174,0.30Ξ ($68),"Jul 20, 2017",0.3,68,2017-07-20
3111,Sold,11004839,15881823,"16.40Ξ ($26,116)","Feb 05, 2021",16.4,26116,2021-02-05
3114,Sold,Zieg,Galactic…,"5.50Ξ ($2,088)","Oct 13, 2020",5.5,2088,2020-10-13
3114,Sold,ross_VRO…,Zieg,"5.77Ξ ($2,027)","Oct 06, 2020",5.77,2027,2020-10-06
3114,Sold,Slider92,ross_VRO…,"5.70Ξ ($2,037)","Sep 29, 2020",5.7,2037,2020-09-29
3114,Sold,Pranksy,Slider92,"4.79Ξ ($1,721)","Sep 28, 2020",4.79,1721,2020-09-28
3114,Sold,0xef764b…,Pranksy,"3.99Ξ ($1,427)","Sep 28, 2020",3.99,1427,2020-09-28
3114,Sold,Hemba,0xef764b…,2.30Ξ ($796),"Sep 24, 2020",2.3,796,2020-09-24
3115,Sold,0xbc081c,5772875,0.30Ξ ($58),"Jul 19, 2017",0.3,58,2017-07-19
3117,Sold,0x8234be,376844,0.10Ξ ($74),"Dec 27, 2017",0.1,74,2017-12-27
3119,Sold,5966219,7823584,0.17Ξ ($55),"Jun 28, 2017",0.17,55,2017-06-28
3120,Sold,moderats,0x9224bb,"9.66Ξ ($12,058)","Jan 16, 2021",9.66,12058,2021-01-16
3120,Sold,j1mmy,moderats,"6.70Ξ ($2,535)","Sep 15, 2020",6.7,2535,2020-09-15
3120,Sold,0xccc230,j1mmy,0.50Ξ ($88),"Apr 07, 2019",0.5,88,2019-04-07
3121,Sold,5966219,45688,0.29Ξ ($70),"Jul 07, 2017",0.29,70,2017-07-07
3125,Sold,0x967ee5,0x6a8ade,"27.25Ξ ($52,280)","Feb 22, 2021",27.25,52280,2021-02-22
3125,Sold,aviexkak…,0x967ee5,"20Ξ ($39,458)","Feb 21, 2021",20,39458,2021-02-21
3125,Sold,pinkiepi…,0x0602a3,"5Ξ ($3,072)","Dec 23, 2020",5,3072,2020-12-23
3125,Sold,NeonNFT,2pac,"4Ξ ($2,428)","Nov 24, 2020",4,2428,2020-11-24
3125,Sold,treetop,NeonNFT,"7.77Ξ ($2,738)","Sep 29, 2020",7.77,2738,2020-09-29
3125,Sold,0x1a96af,treetop,0.86Ξ ($166),"Apr 25, 2020",0.86,166,2020-04-25
3126,Sold,0x1a96af,CryptoIn…,1.74Ξ ($355),"May 24, 2020",1.74,355,2020-05-24
3128,Sold,5966219,14763803,"4.87Ξ ($6,891)","Jan 25, 2021",4.87,6891,2021-01-25
3130,Sold,Hemba,0x052ffe,0.20Ξ ($22),"Nov 27, 2018",0.2,22,2018-11-27
3132,Sold,Hemba,0x75d2ff,0.08Ξ ($101),"Jan 12, 2018",0.08,101,2018-01-12
3133,Sold,0xddfdcb,0xca63cd,"22.49Ξ ($41,152)","Mar 20, 2021",22.49,41152,2021-03-20
3133,Sold,EliteCat…,0xddfdcb,"9.49Ξ ($17,318)","Feb 14, 2021",9.49,17318,2021-02-14
3133,Sold,Hemba,GoWest23,0.45Ξ ($78),"May 06, 2019",0.45,78,2019-05-06
3134,Sold,0x3a6372,7558406,"15.30Ξ ($25,022)","Feb 04, 2021",15.3,25022,2021-02-04
3136,Sold,55241,7435267,0.05Ξ ($26),"May 28, 2018",0.05,26,2018-05-28
3137,Sold,6689278,7187448,"27Ξ ($50,314)","Mar 13, 2021",27,50314,2021-03-13
3139,Sold,ark1,district…,"12.50Ξ ($15,542)","Jan 18, 2021",12.5,15542,2021-01-18
3139,Sold,2pac,ark1,"11Ξ ($13,214)","Jan 18, 2021",11,13214,2021-01-18
3139,Sold,0xa3cb30,2pac,"15Ξ ($7,637)","Nov 20, 2020",15,7637,2020-11-20
3140,Sold,blocktop…,0x_NFT,"4Ξ ($1,379)","Sep 25, 2020",4,1379,2020-09-25
3140,Sold,Hemba,0xc352b5,0.26Ξ ($22),"Dec 13, 2018",0.26,22,2018-12-13
3141,Sold,straybit…,snax,"3.14Ξ ($1,086)","Sep 21, 2020",3.14,1086,2020-09-21
3142,Sold,147191,2142092,"19.49Ξ ($38,080)","Feb 21, 2021",19.49,38080,2021-02-21
3142,Sold,10937065,147191,"14.63Ξ ($28,646)","Feb 21, 2021",14.63,28646,2021-02-21
3143,Sold,0x067034,0x13816f,"3.15Ξ ($1,112)","Sep 27, 2020",3.15,1112,2020-09-27
3143,Sold,Carlini8,0x067034,2.20Ξ ($720),"Sep 24, 2020",2.2,720,2020-09-24
3143,Sold,CPyrc,Carlini8,1.69Ξ ($637),"Sep 14, 2020",1.69,637,2020-09-14
3143,Sold,0x4b9af5,0xba61c5,1Ξ ($239),"Jun 11, 2020",1,239,2020-06-11
3143,Sold,0x231707,0x4b9af5,1.26Ξ ($253),"May 27, 2020",1.26,253,2020-05-27
3144,Sold,Korniej,0x0e4437,"14Ξ ($22,185)","Feb 07, 2021",14,22185,2021-02-07
3144,Sold,0x3ba9cd,Korniej,"9Ξ ($3,219)","Sep 29, 2020",9,3219,2020-09-29
3144,Sold,Carlini8,0x3ba9cd,"6Ξ ($2,068)","Sep 25, 2020",6,2068,2020-09-25
3144,Sold,Pranksy,Carlini8,1Ξ ($127),"Jan 03, 2020",1,127,2020-01-03
3144,Sold,0x00d7c9,Pranksy,0.40Ξ ($109),"Jun 20, 2019",0.4,109,2019-06-20
3145,Sold,0x024bcb,0x7cfa31,"22Ξ ($38,551)","Mar 16, 2021",22,38551,2021-03-16
3145,Sold,0x67e095,0x024bcb,"14.95Ξ ($29,986)","Feb 20, 2021",14.95,29986,2021-02-20
3145,Sold,0x4322d6,0x67e095,"3.40Ξ ($4,522)","Jan 21, 2021",3.4,4522,2021-01-21
3145,Sold,Hemba,0x4322d6,0.26Ξ ($24),"Dec 07, 2018",0.26,24,2018-12-07
3146,Sold,Hemba,0x90b653,0.11Ξ ($77),"Dec 13, 2017",0.11,77,2017-12-13
3149,Sold,Hemba,0xbfa319,1.05Ξ ($284),"Feb 16, 2020",1.05,284,2020-02-16
3150,Sold,0x0b88fd,wookie.e…,"19.91Ξ ($33,556)","Mar 24, 2021",19.91,33556,2021-03-24
3150,Sold,0xa6e2e9,0x6611fe,"21.97Ξ ($39,220)","Mar 15, 2021",21.97,39220,2021-03-15
3152,Sold,MrNFT,0x6f0e05,"4.93Ξ ($1,788)","Sep 28, 2020",4.93,1788,2020-09-28
3152,Sold,GoWest23,MrNFT,"4.75Ξ ($1,699)","Sep 28, 2020",4.75,1699,2020-09-28
3152,Sold,Pixls,GoWest23,0.44Ξ ($76),"May 06, 2019",0.44,76,2019-05-06
3152,Sold,Hemba,Pixls,0.26Ξ ($36),"Dec 30, 2018",0.26,36,2018-12-30
3153,Sold,Hemba,0x8ca89c,0.16Ξ ($111),"Dec 14, 2017",0.16,111,2017-12-14
3155,Sold,7293485,sumrtime…,"8.14Ξ ($14,691)","Feb 13, 2021",8.14,14691,2021-02-13
3156,Sold,Pranksy,natealex,0.65Ξ ($105),"Jan 23, 2020",0.65,105,2020-01-23
3156,Sold,0x00d7c9,Pranksy,0.40Ξ ($109),"Jun 20, 2019",0.4,109,2019-06-20
3157,Sold,0x7e455c,14004593,"21.98Ξ ($32,227)","Feb 26, 2021",21.98,32227,2021-02-26
3157,Sold,0xa6e2e9,8275292,"21Ξ ($33,603)","Feb 25, 2021",21,33603,2021-02-25
3159,Sold,Lumberg,qiwave,1.43Ξ ($315),"Jun 28, 2020",1.43,315,2020-06-28
3159,Sold,barthazi…,Lumberg,0.99Ξ ($240),"Jun 23, 2020",0.99,240,2020-06-23
3159,Sold,0x27c79a,barthazi…,0.55Ξ ($69),"Mar 30, 2020",0.55,69,2020-03-30
3159,Sold,Pranksy,0x27c79a,0.50Ξ ($72),"Jan 07, 2020",0.5,72,2020-01-07
3159,Sold,0x00d7c9,Pranksy,0.40Ξ ($109),"Jun 20, 2019",0.4,109,2019-06-20
3160,Sold,147191,10175861,"39.50Ξ ($70,084)","Mar 12, 2021",39.5,70084,2021-03-12
3160,Sold,5734076,147191,"40Ξ ($53,834)","Feb 28, 2021",40,53834,2021-02-28
3161,Sold,SharkWha…,0xcf6165,"4.99Ξ ($3,207)","Dec 26, 2020",4.99,3207,2020-12-26
3161,Sold,ross_VRO…,SharkWha…,"6.99Ξ ($2,500)","Sep 29, 2020",6.99,2500,2020-09-29
3161,Sold,0xe754d1,ross_VRO…,2.50Ξ ($865),"Sep 24, 2020",2.5,865,2020-09-24
3161,Sold,OnlyToas…,0xe754d1,2Ξ ($746),"Sep 14, 2020",2,746,2020-09-14
3161,Sold,Pranksy,OnlyToas…,1.90Ξ ($709),"Sep 14, 2020",1.9,709,2020-09-14
3161,Sold,therealB…,Pranksy,1.70Ξ ($640),"Sep 14, 2020",1.7,640,2020-09-14
3161,Sold,Hemba,therealB…,0.85Ξ ($370),"Sep 02, 2020",0.85,370,2020-09-02
3162,Sold,0x334e22,0xbc2089,"24.50Ξ ($39,455)","Mar 03, 2021",24.5,39455,2021-03-03
3162,Sold,Hemba,0x334e22,0.12Ξ ($16),"Nov 20, 2018",0.12,16,2018-11-20
3165,Sold,0x94f67d,ross_VRO…,1Ξ ($138),"Mar 28, 2019",1,138,2019-03-28
3166,Sold,0xaae8c5,0x990188,"22.28Ξ ($33,014)","Mar 05, 2021",22.28,33014,2021-03-05
3166,Sold,capital_…,flipper_,"3.69Ξ ($1,508)","Oct 25, 2020",3.69,1508,2020-10-25
3166,Sold,0x067034,capital_…,2.50Ξ ($865),"Sep 24, 2020",2.5,865,2020-09-24
3166,Sold,Carlini8,0x067034,2.40Ξ ($908),"Sep 19, 2020",2.4,908,2020-09-19
3166,Sold,natealex,Carlini8,1.80Ξ ($678),"Sep 14, 2020",1.8,678,2020-09-14
3166,Sold,Pranksy,natealex,1.25Ξ ($460),"Sep 11, 2020",1.25,460,2020-09-11
3166,Sold,TweetyPi…,Pranksy,0.68Ξ ($97),"Jan 11, 2020",0.68,97,2020-01-11
3166,Sold,Hemba,TweetyPi…,0.49Ξ ($65),"Jan 04, 2020",0.49,65,2020-01-04
3168,Sold,10937065,5700683,"20.50Ξ ($30,921)","Feb 27, 2021",20.5,30921,2021-02-27
3169,Sold,0x07c5ea,0x50664e,"12.90Ξ ($24,684)","Feb 18, 2021",12.9,24684,2021-02-18
3169,Sold,Korniej,0x07c5ea,"11.99Ξ ($22,063)","Feb 17, 2021",11.99,22063,2021-02-17
3169,Sold,Hex,Korniej,"5.25Ξ ($2,070)","Oct 12, 2020",5.25,2070,2020-10-12
3169,Sold,LSD,Hex,"4.50Ξ ($1,674)","Oct 12, 2020",4.5,1674,2020-10-12
3169,Sold,Pranksy,Korniej,2.19Ξ ($742),"Sep 24, 2020",2.19,742,2020-09-24
3169,Sold,Hemba,Pranksy,1.80Ξ ($613),"Sep 22, 2020",1.8,613,2020-09-22
3171,Sold,8533182,10362432,0.09Ξ ($72),"Feb 22, 2018",0.09,72,2018-02-22
3172,Sold,0xb40dac,0x25dd15,"3.45Ξ ($1,240)","Sep 28, 2020",3.45,1240,2020-09-28
3172,Sold,0x5e7ee9,0xb40dac,2.65Ξ ($931),"Sep 24, 2020",2.65,931,2020-09-24
3172,Sold,Hemba,0x5e7ee9,2.30Ξ ($796),"Sep 24, 2020",2.3,796,2020-09-24
3173,Sold,0xbfa319,0xf40b3d,"3.38Ξ ($1,105)","Sep 24, 2020",3.38,1105,2020-09-24
3173,Sold,Hemba,0xbfa319,0.65Ξ ($176),"Feb 16, 2020",0.65,176,2020-02-16
3174,Sold,Hemba,Pixls,0.39Ξ ($47),"Feb 08, 2019",0.39,47,2019-02-08
3175,Sold,0xfc2a61,0x76b8a6,"21Ξ ($38,350)","Mar 11, 2021",21,38350,2021-03-11
3175,Sold,0xa546cf,0x979a0c,"6.99Ξ ($12,703)","Feb 13, 2021",6.99,12703,2021-02-13
3175,Sold,FunBum69,0xa546cf,"8.75Ξ ($10,534)","Jan 18, 2021",8.75,10534,2021-01-18
3175,Sold,0xfa75cb,BumFun69,"5.75Ξ ($2,045)","Sep 30, 2020",5.75,2045,2020-09-30
3175,Sold,0x8234be,0x40b489,0.09Ξ ($56),"Apr 25, 2018",0.09,56,2018-04-25
3177,Sold,0x00d7c9,Dude_Nak…,0.35Ξ ($60),"Apr 21, 2019",0.35,60,2019-04-21
3178,Sold,0x61e7e7,scalynel…,"20Ξ ($6,981)","Sep 25, 2020",20,6981,2020-09-25
3178,Sold,sov,0x61e7e7,"8Ξ ($1,669)","May 28, 2020",8,1669,2020-05-28
3179,Sold,pinkiepi…,0x641cf1,"4.40Ξ ($2,745)","Dec 22, 2020",4.4,2745,2020-12-22
3179,Sold,0x735506,2pac,"3.49Ξ ($2,118)","Nov 24, 2020",3.49,2118,2020-11-24
3179,Sold,Pranksy,0x13816f,"5Ξ ($1,734)","Oct 06, 2020",5,1734,2020-10-06
3179,Sold,KittyGr_…,Pranksy,"5Ξ ($1,763)","Oct 04, 2020",5,1763,2020-10-04
3179,Sold,Hemba,KittyGr_…,0.26Ξ ($153),"Jun 08, 2018",0.26,153,2018-06-08
3182,Sold,Hemba,0xde03d3,0.15Ξ ($31),"Nov 13, 2018",0.15,31,2018-11-13
3184,Sold,antunes_…,Tschuuul…,0.45Ξ ($79),"Oct 04, 2019",0.45,79,2019-10-04
3185,Sold,TokenAng…,libraoba…,1.50Ξ ($203),"Mar 25, 2020",1.5,203,2020-03-25
3185,Sold,Pixls,TokenAng…,0.66Ξ ($177),"Jun 16, 2019",0.66,177,2019-06-16
3185,Sold,Hemba,Pixls,0.13Ξ ($26),"Oct 28, 2018",0.13,26,2018-10-28
3186,Sold,1700403,16471589,"21Ξ ($35,993)","Mar 07, 2021",21,35993,2021-03-07
3188,Sold,1700403,3019005,"27Ξ ($51,800)","Feb 22, 2021",27,51800,2021-02-22
3189,Sold,0xa6e2e9,11006919,"21.49Ξ ($44,008)","Apr 08, 2021",21.49,44008,2021-04-08
3192,Sold,0xd4442b,0xe703f2,"17.50Ξ ($36,235)","Apr 08, 2021",17.5,36235,2021-04-08
3192,Sold,Deeze,0xd4442b,"16Ξ ($33,467)","Apr 07, 2021",16,33467,2021-04-07
3192,Sold,renaissa…,0x568cf5,"5.50Ξ ($2,000)","Sep 28, 2020",5.5,2000,2020-09-28
3192,Sold,0x231707,renaissa…,"4Ξ ($1,431)","Sep 28, 2020",4,1431,2020-09-28
3193,Sold,ross_VRO…,stazie,0.53Ξ ($83),"Apr 06, 2020",0.53,83,2020-04-06
3193,Sold,PabloFM,ross_VRO…,0.33Ξ ($44),"Mar 13, 2019",0.33,44,2019-03-13
3193,Sold,0x4960c4…,PabloFM,0.15Ξ ($28),"Oct 11, 2018",0.15,28,2018-10-11
3193,Sold,0xd8e806,0x4960c4…,0.20Ξ ($62),"Aug 12, 2017",0.2,62,2017-08-12
3193,Sold,0x22160e,0xd8e806,0.37Ξ ($83),"Jul 12, 2017",0.37,83,2017-07-12
3196,Sold,Hemba,0xf13a47,0.20Ξ ($166),"Feb 04, 2018",0.2,166,2018-02-04
3199,Sold,aviexkak…,0x50ec37,"25Ξ ($36,739)","Feb 27, 2021",25,36739,2021-02-27
3199,Sold,SenecaEt…,0xbf6ccf,"3.59Ξ ($2,248)","Dec 22, 2020",3.59,2248,2020-12-22
3199,Sold,Carlini8,SenecaEt…,"3.10Ξ ($1,100)","Sep 27, 2020",3.1,1100,2020-09-27
3199,Sold,0x3ba9cd,Carlini8,"2.95Ξ ($1,047)","Sep 26, 2020",2.95,1047,2020-09-26
3199,Sold,redlione…,0x3ba9cd,2.10Ξ ($712),"Sep 23, 2020",2.1,712,2020-09-23
3199,Sold,Pranksy,redlione…,1.40Ξ ($526),"Sep 14, 2020",1.4,526,2020-09-14
3199,Sold,Michel_M…,Pranksy,1.38Ξ ($510),"Sep 11, 2020",1.38,510,2020-09-11
3199,Sold,0x48db19,Michel_M…,0.90Ξ ($384),"Aug 14, 2020",0.9,384,2020-08-14
3201,Sold,Pranksy,Kataster…,2.10Ξ ($389),"Apr 18, 2020",2.1,389,2020-04-18
3201,Sold,0x1a96af,Pranksy,1.25Ξ ($212),"Apr 17, 2020",1.25,212,2020-04-17
3202,Sold,0xf1b658,5355712,"24Ξ ($36,798)","Feb 25, 2021",24,36798,2021-02-25
3202,Sold,0xa3cb30,5976862,"18Ξ ($33,221)","Feb 17, 2021",18,33221,2021-02-17
3203,Sold,10937065,3416626,"23.40Ξ ($41,731)","Feb 22, 2021",23.4,41731,2021-02-22
3204,Sold,8533182,8350887,0.09Ξ ($77),"Feb 23, 2018",0.09,77,2018-02-23
3205,Sold,Hemba,0xbd066b,0.14Ξ ($29),"Nov 07, 2018",0.14,29,2018-11-07
3206,Sold,0x29b1b2,0x30e924,"28Ξ ($54,048)","Mar 14, 2021",28,54048,2021-03-14
3206,Sold,0x4960c4…,0x29b1b2,"8.50Ξ ($10,373)","Jan 27, 2021",8.5,10373,2021-01-27
3206,Sold,0x8234be,0x4960c4…,0.08Ξ ($53),"Apr 26, 2018",0.08,53,2018-04-26
3207,Sold,Pranksy,0xc352b5,1.20Ξ ($469),"Aug 26, 2020",1.2,469,2020-08-26
3207,Sold,0x470e9b,Pranksy,1Ξ ($177),"Jan 18, 2020",1,177,2020-01-18
3208,Sold,10734384,14639404,"18.88Ξ ($34,673)","Mar 30, 2021",18.88,34673,2021-03-30
3213,Sold,10937065,WuTangCl…,"14.60Ξ ($28,367)","Feb 21, 2021",14.6,28367,2021-02-21
3214,Sold,5966219,8008732,0.25Ξ ($69),"Jul 03, 2017",0.25,69,2017-07-03
3215,Sold,0xe38f38,0xc9ab58,"6.66Ξ ($8,767)","Feb 01, 2021",6.66,8767,2021-02-01
3215,Sold,0x1c7452,0xe38f38,"4.99Ξ ($1,882)","Oct 13, 2020",4.99,1882,2020-10-13
3215,Sold,ross_VRO…,antunes_…,"4.85Ξ ($1,671)","Oct 02, 2020",4.85,1671,2020-10-02
3215,Sold,0xa6e2e9,ross_VRO…,1Ξ ($202),"May 22, 2020",1,202,2020-05-22
3217,Sold,aviexkak…,0xddfdcb,"15.50Ξ ($28,427)","Feb 17, 2021",15.5,28427,2021-02-17
3217,Sold,0xa3cb30,0xbc9ca5…,"5.80Ξ ($1,950)","Oct 08, 2020",5.8,1950,2020-10-08
3218,Sold,0x1424d2,0x19c364,"21.40Ξ ($44,167)","Apr 08, 2021",21.4,44167,2021-04-08
3218,Sold,Hemba,0x1424d2,0.15Ξ ($15),"Dec 05, 2018",0.15,15,2018-12-05
3219,Sold,Pixls,0x374bd1,0.48Ξ ($118),"May 23, 2019",0.48,118,2019-05-23
3219,Sold,Hemba,Pixls,0.13Ξ ($26),"Oct 28, 2018",0.13,26,2018-10-28
3221,Sold,Deeze,0x433722,"6.99Ξ ($11,130)","Feb 04, 2021",6.99,11130,2021-02-04
3221,Sold,0x387405,Deeze,"4.89Ξ ($6,563)","Jan 29, 2021",4.89,6563,2021-01-29
3222,Sold,0x5b098b,sumrtime…,"7.10Ξ ($11,506)","Feb 04, 2021",7.1,11506,2021-02-04
3223,Sold,0x3a4930,0x0ebd1a,"23Ξ ($40,876)","Feb 17, 2021",23,40876,2021-02-17
3223,Sold,Lmao,0x5554a0,"3.52Ξ ($1,236)","Oct 08, 2020",3.52,1236,2020-10-08
3223,Sold,plr82,Lmao,"5.50Ξ ($2,001)","Sep 28, 2020",5.5,2001,2020-09-28
3223,Sold,Pranksy,plr82,0.60Ξ ($67),"Mar 16, 2020",0.6,67,2020-03-16
3223,Sold,0x00d7c9,Pranksy,0.40Ξ ($109),"Jun 20, 2019",0.4,109,2019-06-20
3224,Sold,MadMax,0x050a3b,"15.25Ξ ($29,880)","Feb 21, 2021",15.25,29880,2021-02-21
3224,Sold,0xccc230,MadMax,"12Ξ ($23,359)","Feb 21, 2021",12,23359,2021-02-21
3225,Sold,0x577ebc,10866901,"28.49Ξ ($51,662)","Mar 17, 2021",28.49,51662,2021-03-17
3226,Sold,flipper_,0x257e2b,"5.99Ξ ($2,198)","Oct 16, 2020",5.99,2198,2020-10-16
3226,Sold,0x5b098b,flipper_,"4.99Ξ ($1,821)","Sep 28, 2020",4.99,1821,2020-09-28
3226,Sold,0x515a82,0x5b098b,0.05Ξ ($16),"Jun 28, 2017",0.05,16,2017-06-28
3227,Sold,0xe4446d,0x93e351,"26Ξ ($41,668)","Mar 03, 2021",26,41668,2021-03-03
3227,Sold,0x90b60b,0xe4446d,"24Ξ ($36,733)","Mar 01, 2021",24,36733,2021-03-01
3227,Sold,niwin,Loopify,"19.50Ξ ($38,472)","Feb 21, 2021",19.5,38472,2021-02-21
3227,Sold,0xf7c889,niwin,"16.95Ξ ($32,845)","Feb 21, 2021",16.95,32845,2021-02-21
3227,Sold,0xc04f55,0xf7c889,"14.95Ξ ($29,073)","Feb 20, 2021",14.95,29073,2021-02-20
3227,Sold,0x8234be,Dude_Nak…,0.15Ξ ($57),"Apr 01, 2018",0.15,57,2018-04-01
3228,Sold,0x4f63c2,0x043f42,"22.98Ξ ($41,121)","Mar 18, 2021",22.98,41121,2021-03-18
3228,Sold,0x5b098b,0x568cf5,"5.89Ξ ($2,142)","Sep 28, 2020",5.89,2142,2020-09-28
3228,Sold,0x6f72f2,0x5b098b,0.15Ξ ($33),"Sep 16, 2018",0.15,33,2018-09-16
3228,Sold,0xb6be4d,0x6f72f2,0.09Ξ ($26),"Nov 02, 2017",0.09,26,2017-11-02
3230,Sold,0x0503ed,TokenAng…,"49Ξ ($79,667)","Feb 25, 2021",49,79667,2021-02-25
3230,Sold,0xef768e,0x0503ed,"26Ξ ($42,272)","Feb 25, 2021",26,42272,2021-02-25
3231,Sold,Hemba,Kenney,0.15Ξ ($57),"Apr 04, 2018",0.15,57,2018-04-04
3232,Sold,0x682c30,Cyrus,0.49Ξ ($54),"Nov 27, 2018",0.49,54,2018-11-27
3233,Sold,0x682c30,45688,0.39Ξ ($104),"Jul 06, 2017",0.39,104,2017-07-06
3234,Sold,0x13816f,0xe6d2a9,"9.55Ξ ($16,842)","Feb 15, 2021",9.55,16842,2021-02-15
3234,Sold,Pranksy,0x13816f,"4.99Ξ ($1,756)","Oct 05, 2020",4.99,1756,2020-10-05
3234,Sold,KittyGr_…,Pranksy,"4Ξ ($1,408)","Oct 04, 2020",4,1408,2020-10-04
3234,Sold,Hemba,KittyGr_…,0.13Ξ ($78),"Jun 08, 2018",0.13,78,2018-06-08
3235,Sold,0x939183,0xa36e35,"18Ξ ($32,089)","Mar 19, 2021",18,32089,2021-03-19
3235,Sold,Hemba,0x939183,0.14Ξ ($14),"Dec 05, 2018",0.14,14,2018-12-05
3237,Sold,2102446,11976269,"20Ξ ($35,607)","Mar 17, 2021",20,35607,2021-03-17
3238,Sold,0x13816f,0xc71f4f,"10.88Ξ ($19,573)","Feb 16, 2021",10.88,19573,2021-02-16
3238,Sold,GoWest23,0x13816f,"4.62Ξ ($1,685)","Sep 28, 2020",4.62,1685,2020-09-28
3238,Sold,0x2db1c4,GoWest23,0.35Ξ ($61),"May 06, 2019",0.35,61,2019-05-06
3238,Sold,Hemba,0x2db1c4,0.15Ξ ($27),"Nov 18, 2018",0.15,27,2018-11-18
3239,Sold,0x0ee062,0xeed4ab,"21Ξ ($38,177)","Mar 12, 2021",21,38177,2021-03-12
3239,Sold,Hemba,0x0ee062,0.13Ξ ($26),"Oct 31, 2018",0.13,26,2018-10-31
3241,Sold,Hemba,0x7f6ca7,0.06Ξ ($76),"Jan 12, 2018",0.06,76,2018-01-12
3242,Sold,Pranksy,0x185703,0.99Ξ ($226),"Jul 01, 2020",0.99,226,2020-07-01
3242,Sold,0x1a96af,Pranksy,0.97Ξ ($196),"May 22, 2020",0.97,196,2020-05-22
3243,Sold,10937065,92581,"21.50Ξ ($33,127)","Feb 26, 2021",21.5,33127,2021-02-26
3245,Sold,Pranksy,0xb87461,0.70Ξ ($103),"Dec 09, 2019",0.7,103,2019-12-09
3245,Sold,0x00d7c9,Pranksy,0.40Ξ ($118),"Jun 21, 2019",0.4,118,2019-06-21
3246,Sold,MrTpunks,WuTangCl…,"26Ξ ($50,517)","Feb 21, 2021",26,50517,2021-02-21
3246,Sold,VonMises,MrTpunks,"7Ξ ($1,632)","Jun 18, 2020",7,1632,2020-06-18
3246,Sold,Pixls,VonMises,"5Ξ ($1,030)","May 21, 2020",5,1030,2020-05-21
3246,Sold,0xe45df5,Pixls,0.25Ξ ($22),"Dec 13, 2018",0.25,22,2018-12-13
3247,Sold,14966261,libraoba…,1.80Ξ ($243),"Mar 25, 2020",1.8,243,2020-03-25
3249,Sold,10734384,9420817,"7.50Ξ ($13,046)","Feb 10, 2021",7.5,13046,2021-02-10
3250,Sold,TokenAng…,0x88a679,"15Ξ ($25,985)","Feb 15, 2021",15,25985,2021-02-15
3250,Sold,0xa3cb30,TokenAng…,"5.85Ξ ($2,053)","Oct 08, 2020",5.85,2053,2020-10-08
3253,Sold,0xf5099e,Cyrus,0.40Ξ ($44),"Nov 27, 2018",0.4,44,2018-11-27
3253,Sold,0x682c30,0xa0a59c,0.30Ξ ($81),"Jul 04, 2017",0.3,81,2017-07-04
3254,Sold,FunBum69,0x3e17fa,"4.99Ξ ($1,756)","Sep 27, 2020",4.99,1756,2020-09-27
3254,Sold,0xa6e2e9,BumFun69,2Ξ ($468),"Jun 17, 2020",2,468,2020-06-17
3255,Sold,0x023ef7,0xe54420,"23.50Ξ ($41,747)","Mar 16, 2021",23.5,41747,2021-03-16
3255,Sold,0x7c00c9…,0x023ef7,"21Ξ ($39,382)","Mar 14, 2021",21,39382,2021-03-14
3255,Sold,Hemba,0x7c00c9…,0.26Ξ ($24),"Dec 07, 2018",0.26,24,2018-12-07
3256,Sold,5098227,393680,1.75Ξ ($225),"Jan 01, 2020",1.75,225,2020-01-01
3256,Sold,14215174,5098227,1.25Ξ ($257),"Jul 13, 2017",1.25,257,2017-07-13
3257,Sold,cryptosa…,0x3ee505,2.35Ξ ($813),"Sep 24, 2020",2.35,813,2020-09-24
3257,Sold,0x1a96af,cryptosa…,1.65Ξ ($341),"May 27, 2020",1.65,341,2020-05-27
3257,Sold,0x00bd3a,0xe45df5,0.19Ξ ($53),"Jun 30, 2017",0.19,53,2017-06-30
3257,Sold,0x682c30,0x00bd3a,0.10Ξ ($32),"Jun 28, 2017",0.1,32,2017-06-28
3258,Sold,10734384,11539997,"13.55Ξ ($24,866)","Feb 17, 2021",13.55,24866,2021-02-17
3259,Sold,TokenAng…,gen0x.et…,"30Ξ ($52,539)","Mar 11, 2021",30,52539,2021-03-11
3259,Sold,0x682c30,TokenAng…,2.99Ξ ($725),"Jul 22, 2020",2.99,725,2020-07-22
3260,Sold,kxbxlt,snax,1.38Ξ ($509),"Sep 11, 2020",1.38,509,2020-09-11
3260,Sold,Michel_M…,kxbxlt,0.95Ξ ($231),"Jun 23, 2020",0.95,231,2020-06-23
3260,Sold,Pixls,Michel_M…,0.29Ξ ($39),"Mar 14, 2019",0.29,39,2019-03-14
3260,Sold,Hemba,Pixls,0.26Ξ ($36),"Dec 30, 2018",0.26,36,2018-12-30
3261,Sold,0x13816f,0x0e6167,"14.77Ξ ($29,140)","Feb 21, 2021",14.77,29140,2021-02-21
3261,Sold,Pranksy,0x13816f,"4.79Ξ ($1,714)","Sep 28, 2020",4.79,1714,2020-09-28
3261,Sold,0xef764b…,Pranksy,"3.99Ξ ($1,427)","Sep 28, 2020",3.99,1427,2020-09-28
3261,Sold,0x5aaeb9,0xef764b…,2.29Ξ ($792),"Sep 24, 2020",2.29,792,2020-09-24
3261,Sold,Pranksy,0x5aaeb9,2.19Ξ ($757),"Sep 24, 2020",2.19,757,2020-09-24
3261,Sold,Hemba,Pranksy,1.80Ξ ($613),"Sep 22, 2020",1.8,613,2020-09-22
3262,Sold,0x231707,moonphas…,"4Ξ ($1,385)","Sep 25, 2020",4,1385,2020-09-25
3266,Sold,Hemba,Pixls,0.13Ξ ($26),"Oct 28, 2018",0.13,26,2018-10-28
3268,Sold,Dude_Nak…,7478,0.60Ξ ($131),"Feb 07, 2020",0.6,131,2020-02-07
3268,Sold,Hemba,Dude_Nak…,0.13Ξ ($26),"Oct 28, 2018",0.13,26,2018-10-28
3269,Sold,Tschuuul…,0x4fdfaa,0.41Ξ ($49),"Feb 09, 2019",0.41,49,2019-02-09
3269,Sold,Pixls,Tschuuul…,0.41Ξ ($49),"Feb 08, 2019",0.41,49,2019-02-08
3269,Sold,Hemba,Pixls,0.16Ξ ($32),"Nov 01, 2018",0.16,32,2018-11-01
3270,Sold,Hemba,0xc352b5,0.15Ξ ($31),"Oct 28, 2018",0.15,31,2018-10-28
3273,Sold,0xa3cb30,Deeze,"16.50Ξ ($33,205)","Apr 04, 2021",16.5,33205,2021-04-04
3274,Sold,Hemba,snowfro,0.15Ξ ($15),"Dec 05, 2018",0.15,15,2018-12-05
3275,Sold,2299655,6691858,"24Ξ ($40,995)","Feb 22, 2021",24,40995,2021-02-22
3276,Sold,0x3f1724,0x8bebdb,"12Ξ ($21,210)","Feb 16, 2021",12,21210,2021-02-16
3276,Sold,Hemba,0x3f1724,0.08Ξ ($92),"Jan 20, 2018",0.08,92,2018-01-20
3277,Sold,0xd3e2e7,0x516358,"26.67Ξ ($55,293)","Apr 04, 2021",26.67,55293,2021-04-04
3277,Sold,point-gr…,0xd3e2e7,"21.97Ξ ($44,920)","Apr 03, 2021",21.97,44920,2021-04-03
3277,Sold,0xa3cb30,point-gr…,"19.99Ξ ($36,712)","Mar 30, 2021",19.99,36712,2021-03-30
3278,Sold,Hemba,0xc352b5,0.14Ξ ($29),"Oct 28, 2018",0.14,29,2018-10-28
3280,Sold,scalynel…,0xe9137b,"19Ξ ($34,223)","Feb 16, 2021",19,34223,2021-02-16
3280,Sold,Pranksy,scalynel…,0.75Ξ ($99),"Jan 03, 2020",0.75,99,2020-01-03
3280,Sold,0x00d7c9,Pranksy,0.40Ξ ($109),"Jun 20, 2019",0.4,109,2019-06-20
3285,Sold,Hemba,0x2478c4,0.42Ξ ($92),"Jul 21, 2017",0.42,92,2017-07-21
3286,Sold,Pixls,snowfro,0.15Ξ ($15),"Dec 05, 2018",0.15,15,2018-12-05
3286,Sold,Hemba,Pixls,0.13Ξ ($26),"Nov 01, 2018",0.13,26,2018-11-01
3287,Sold,0xa7eba7,VonMises,"15.43Ξ ($5,500)","Sep 29, 2020",15.43,5500,2020-09-29
3291,Sold,Deeze,0x5cda7e,"35Ξ ($66,574)","Mar 14, 2021",35,66574,2021-03-14
3291,Sold,0x701f37,Deeze,"18.50Ξ ($33,327)","Mar 11, 2021",18.5,33327,2021-03-11
3291,Sold,0x3e17fa,0x701f37,"11Ξ ($18,921)","Feb 15, 2021",11,18921,2021-02-15
3291,Sold,snax,0x3e17fa,"3.30Ξ ($1,141)","Sep 24, 2020",3.3,1141,2020-09-24
3291,Sold,Hemba,snax,0.11Ξ ($127),"Jan 20, 2018",0.11,127,2018-01-20
3293,Sold,0xfb077c,14215174,0.50Ξ ($108),"Jul 21, 2017",0.5,108,2017-07-21
3295,Sold,Novo311,krybhara…,1.29Ξ ($513),"Aug 07, 2020",1.29,513,2020-08-07
3295,Sold,Pranksy,Novo311,0.75Ξ ($171),"Jul 05, 2020",0.75,171,2020-07-05
3295,Sold,0x00d7c9,Pranksy,0.40Ξ ($118),"Jun 21, 2019",0.4,118,2019-06-21
3295,Sold,0xbc081c,0x00d7c9,0.30Ξ ($69),"Jul 22, 2017",0.3,69,2017-07-22
3301,Sold,6249972,8181669,"24.99Ξ ($43,522)","Mar 12, 2021",24.99,43522,2021-03-12
3302,Sold,10993012,9945307,"19.99Ξ ($41,826)","Apr 03, 2021",19.99,41826,2021-04-03
3302,Sold,10734384,10993012,"18.99Ξ ($35,009)","Mar 30, 2021",18.99,35009,2021-03-30
3304,Sold,14215174,12800693,0.22Ξ ($66),"Sep 11, 2017",0.22,66,2017-09-11
3304,Sold,2233870,14215174,0.32Ξ ($72),"Jul 20, 2017",0.32,72,2017-07-20
3304,Sold,12322844,2233870,0.30Ξ ($58),"Jul 19, 2017",0.3,58,2017-07-19
3305,Sold,Cyborg,0x8ca89c,0.15Ξ ($104),"Dec 14, 2017",0.15,104,2017-12-14
3305,Sold,0x8ba3e2,Cyborg,0.09Ξ ($28),"Oct 19, 2017",0.09,28,2017-10-19
3306,Sold,point-gr…,0x516358,"23.90Ξ ($51,213)","Apr 12, 2021",23.9,51213,2021-04-12
3306,Sold,0x62bdc6,point-gr…,"19.97Ξ ($41,740)","Apr 10, 2021",19.97,41740,2021-04-10
3306,Sold,0xf9728b,0x11c9a7,"3.33Ξ ($2,087)","Dec 22, 2020",3.33,2087,2020-12-22
3306,Sold,0x3ba9cd,0xf9728b,"2.95Ξ ($1,047)","Sep 26, 2020",2.95,1047,2020-09-26
3306,Sold,0x11c9a7,0x3ba9cd,2.02Ξ ($684),"Sep 23, 2020",2.02,684,2020-09-23
3306,Sold,OnlyToas…,0x11c9a7,1.95Ξ ($725),"Sep 15, 2020",1.95,725,2020-09-15
3306,Sold,Pranksy,OnlyToas…,1.90Ξ ($709),"Sep 14, 2020",1.9,709,2020-09-14
3306,Sold,cryptosa…,Pranksy,1.75Ξ ($659),"Sep 14, 2020",1.75,659,2020-09-14
3306,Sold,SharkWha…,cryptosa…,1.24Ξ ($251),"May 26, 2020",1.24,251,2020-05-26
3306,Sold,0x43b89f,SharkWha…,0.99Ξ ($199),"May 22, 2020",0.99,199,2020-05-22
3306,Sold,0x8ba3e2,0x43b89f,0.09Ξ ($27),"Oct 09, 2017",0.09,27,2017-10-09
3307,Sold,jmg,0x7224a1,"189.99Ξ ($137,522)","Dec 30, 2020",189.99,137522,2020-12-30
3307,Sold,GoWest23,jmg,"20Ξ ($2,498)","Dec 28, 2019",20,2498,2019-12-28
3307,Sold,shilpixe…,GoWest23,"10Ξ ($2,609)","May 19, 2019",10,2609,2019-05-19
3308,Sold,shilpixe…,0x6336fb,"115Ξ ($239,187)","Apr 02, 2021",115,239187,2021-04-02
3310,Sold,0x870a9d,2607002,0.50Ξ ($72),"Jan 07, 2020",0.5,72,2020-01-07
3310,Sold,0x5b098b,8850077,0.38Ξ ($102),"Jul 04, 2017",0.38,102,2017-07-04
3312,Sold,0x0c3195…,0x46b4fa,"5.98Ξ ($9,054)","Feb 03, 2021",5.98,9054,2021-02-03
3312,Sold,Hemba,0x0c3195…,0.13Ξ ($27),"Nov 08, 2018",0.13,27,2018-11-08
3313,Sold,0x06bf2b,6502139,"70Ξ ($142,295)","Apr 08, 2021",70,142295,2021-04-08
3314,Sold,16722004,11499351,"24Ξ ($50,948)","Apr 10, 2021",24,50948,2021-04-10
3314,Sold,5966219,16722004,"25.45Ξ ($45,407)","Mar 19, 2021",25.45,45407,2021-03-19
3316,Sold,1633682,13475271,"17Ξ ($32,158)","Feb 18, 2021",17,32158,2021-02-18
3316,Sold,10734384,1633682,"13.50Ξ ($24,551)","Feb 14, 2021",13.5,24551,2021-02-14
3317,Sold,Carlini8,MrTpunks…,3.50Ξ ($718),"May 22, 2020",3.5,718,2020-05-22
3317,Sold,Dude_Nak…,Carlini8,1.45Ξ ($185),"Jan 03, 2020",1.45,185,2020-01-03
3317,Sold,0x7eb46d,Dude_Nak…,0.20Ξ ($112),"Mar 21, 2018",0.2,112,2018-03-21
3317,Sold,0xd8e806,0x7eb46d,0.20Ξ ($140),"Dec 13, 2017",0.2,140,2017-12-13
3318,Sold,Pixls,josie,0.70Ξ ($116),"Apr 11, 2019",0.7,116,2019-04-11
3318,Sold,0xe45df5,Pixls,0.25Ξ ($22),"Dec 13, 2018",0.25,22,2018-12-13
3320,Sold,0x13816f,0x55e149,"8.20Ξ ($14,922)","Feb 15, 2021",8.2,14922,2021-02-15
3320,Sold,LSD,0x13816f,"4.15Ξ ($1,549)","Oct 10, 2020",4.15,1549,2020-10-10
3320,Sold,0x45ea36,iandoz,"4.60Ξ ($1,559)","Oct 07, 2020",4.6,1559,2020-10-07
3320,Sold,Hemba,0x334e22,0.14Ξ ($18),"Nov 20, 2018",0.14,18,2018-11-20
3321,Sold,NFTinTin,VonMises,1.50Ξ ($318),"May 08, 2020",1.5,318,2020-05-08
3321,Sold,0x1a96af,NFTinTin,1Ξ ($183),"Apr 19, 2020",1,183,2020-04-19
3323,Sold,337252,9960950,"24Ξ ($40,446)","Feb 23, 2021",24,40446,2021-02-23
3323,Sold,12322844,14215174,0.30Ξ ($58),"Jul 19, 2017",0.3,58,2017-07-19
3324,Sold,0x84c920,7348023,"33Ξ ($54,074)","Feb 24, 2021",33,54074,2021-02-24
3324,Sold,0x19f233,8702240,"35Ξ ($54,766)","Feb 23, 2021",35,54766,2021-02-23
3325,Sold,Cyborg,Pixls,0.28Ξ ($30),"Feb 03, 2019",0.28,30,2019-02-03
3325,Sold,0xd8e806,Cyborg,0.18Ξ ($55),"Aug 12, 2017",0.18,55,2017-08-12
3325,Sold,0xbc081c,0xd8e806,0.30Ξ ($68),"Jul 20, 2017",0.3,68,2017-07-20
3326,Sold,0x0553de,0x0e6167,"17.50Ξ ($34,526)","Feb 21, 2021",17.5,34526,2021-02-21
3326,Sold,0x422fac,0x0553de,"9.50Ξ ($16,936)","Feb 17, 2021",9.5,16936,2021-02-17
3326,Sold,0x0713a6,0xe5e771,"6.50Ξ ($2,335)","Sep 28, 2020",6.5,2335,2020-09-28
3326,Sold,Roses,0x0713a6,1Ξ ($210),"May 20, 2020",1,210,2020-05-20
3326,Sold,0x0af8cc,Roses,0.40Ξ ($97),"May 22, 2019",0.4,97,2019-05-22
3326,Sold,0x00d7c9,0x0af8cc,0.05Ξ ($25),"Jun 12, 2018",0.05,25,2018-06-12
3327,Sold,0xdfce59,0x96a691,"23.88Ξ ($48,804)","Apr 05, 2021",23.88,48804,2021-04-05
3327,Sold,Pranksy,0xdfce59,"4.35Ξ ($1,471)","Oct 08, 2020",4.35,1471,2020-10-08
3327,Sold,0x45ea36,Pranksy,"4.45Ξ ($1,513)","Oct 07, 2020",4.45,1513,2020-10-07
3327,Sold,Hemba,0x334e22,0.15Ξ ($20),"Nov 20, 2018",0.15,20,2018-11-20
3328,Sold,0x5462de,7435267,"1.48Ξ ($1,443)","Feb 17, 2018",1.48,1443,2018-02-17
3330,Sold,0x596572,0x51636d,"29Ξ ($49,872)","Mar 08, 2021",29,49872,2021-03-08
3330,Sold,0xce6969,0x596572,"25.80Ξ ($38,089)","Mar 05, 2021",25.8,38089,2021-03-05
3330,Sold,0x67b404,flipper_,"4Ξ ($2,470)","Dec 21, 2020",4,2470,2020-12-21
3330,Sold,0x6e5e91,0x67b404,1.40Ξ ($318),"Jul 06, 2020",1.4,318,2020-07-06
3330,Sold,Pranksy,0x6e5e91,1.49Ξ ($308),"May 23, 2020",1.49,308,2020-05-23
3330,Sold,0x00d7c9,Pranksy,0.40Ξ ($118),"Jun 21, 2019",0.4,118,2019-06-21
3332,Sold,0x0e4437,Michel_M…,"28Ξ ($41,164)","Mar 02, 2021",28,41164,2021-03-02
3332,Sold,0x5b331e,0x0e4437,"8Ξ ($13,811)","Feb 05, 2021",8,13811,2021-02-05
3332,Sold,Cryptokk…,0x5b331e,"7Ξ ($11,555)","Feb 05, 2021",7,11555,2021-02-05
3332,Sold,Hemba,Cryptokk…,0.48Ξ ($63),"Feb 24, 2019",0.48,63,2019-02-24
3333,Sold,H6A5-0x,jmg,"6Ξ ($7,296)","Jan 23, 2021",6,7296,2021-01-23
3334,Sold,0x334e22,NFTinTin,"10.08Ξ ($17,462)","Feb 15, 2021",10.08,17462,2021-02-15
3334,Sold,Hemba,0x334e22,0.12Ξ ($16),"Nov 20, 2018",0.12,16,2018-11-20
3336,Sold,evkort,0x_NFT,"4.50Ξ ($1,579)","Oct 08, 2020",4.5,1579,2020-10-08
3336,Sold,Lmao,evkort,"4Ξ ($1,404)","Oct 08, 2020",4,1404,2020-10-08
3336,Sold,TJ2010,Lmao,"6Ξ ($2,183)","Sep 28, 2020",6,2183,2020-09-28
3336,Sold,Pranksy,TJ2010,1.20Ξ ($412),"Sep 07, 2020",1.2,412,2020-09-07
3336,Sold,0x231707,Pranksy,1.12Ξ ($199),"Jan 18, 2020",1.12,199,2020-01-18
3338,Sold,Cryptokk…,0x0e6167,"17.95Ξ ($35,414)","Feb 21, 2021",17.95,35414,2021-02-21
3338,Sold,Hemba,Cryptokk…,0.48Ξ ($120),"May 24, 2019",0.48,120,2019-05-24
3339,Sold,0x65ba4f,0x20eadf,"22.40Ξ ($41,555)","Feb 22, 2021",22.4,41555,2021-02-22
3339,Sold,aviexkak…,0x65ba4f,"5.89Ξ ($10,413)","Feb 09, 2021",5.89,10413,2021-02-09
3339,Sold,Pranksy,gaus,2.75Ξ ($949),"Sep 25, 2020",2.75,949,2020-09-25
3339,Sold,Hemba,Pranksy,2.30Ξ ($796),"Sep 24, 2020",2.3,796,2020-09-24
3340,Sold,0x16624b,0x0a4eaf…,0.70Ξ ($476),"Dec 27, 2020",0.7,476,2020-12-27
3340,Sold,Hemba,0x16624b,0.10Ξ ($139),"Jan 13, 2018",0.1,139,2018-01-13
3341,Sold,0xad4f9e,Thing,"5.99Ξ ($2,215)","Oct 16, 2020",5.99,2215,2020-10-16
3341,Sold,Dude_Nak…,0xad4f9e,"5.79Ξ ($2,157)","Oct 11, 2020",5.79,2157,2020-10-11
3341,Sold,Hemba,Dude_Nak…,1.20Ξ ($242),"May 22, 2020",1.2,242,2020-05-22
3342,Sold,Hemba,0xeb9191,1.20Ξ ($234),"May 15, 2020",1.2,234,2020-05-15
3343,Sold,0xc272ed,150475,"27Ξ ($52,753)","Feb 21, 2021",27,52753,2021-02-21
3344,Sold,0xa7eba7,TJ2010,"11Ξ ($4,013)","Sep 28, 2020",11,4013,2020-09-28
3346,Sold,0x5e7ee9,gaus,"3.40Ξ ($1,222)","Sep 28, 2020",3.4,1222,2020-09-28
3346,Sold,0xf4239e,0x5e7ee9,"3.20Ξ ($1,101)","Sep 25, 2020",3.2,1101,2020-09-25
3346,Sold,Hemba,0xf4239e,2.30Ξ ($795),"Sep 24, 2020",2.3,795,2020-09-24
3347,Sold,10734384,sumrtime…,"31.50Ξ ($60,035)","Feb 18, 2021",31.5,60035,2021-02-18
3348,Sold,Hemba,Tschuuul…,0.37Ξ ($43),"Jan 26, 2019",0.37,43,2019-01-26
3349,Sold,Hemba,kris.sma…,0.36Ξ ($39),"Jan 30, 2019",0.36,39,2019-01-30
3350,Sold,444.eth,0x7a3960,"4.70Ξ ($1,759)","Oct 12, 2020",4.7,1759,2020-10-12
3350,Sold,evkort,444.eth,"5.50Ξ ($1,929)","Oct 03, 2020",5.5,1929,2020-10-03
3350,Sold,GoWest23,evkort,"5.25Ξ ($1,900)","Sep 28, 2020",5.25,1900,2020-09-28
3350,Sold,Hemba,GoWest23,0.43Ξ ($74),"May 06, 2019",0.43,74,2019-05-06
3352,Sold,Hemba,0x185703,0.90Ξ ($362),"Aug 29, 2020",0.9,362,2020-08-29
3353,Sold,0x00d7c9,tttaaa,0.45Ξ ($122),"May 27, 2019",0.45,122,2019-05-27
3355,Sold,0x033ee7,0x3ff68e,"13.83Ξ ($26,366)","Feb 18, 2021",13.83,26366,2021-02-18
3355,Sold,0xe3c98c,0x033ee7,"3.50Ξ ($1,211)","Sep 24, 2020",3.5,1211,2020-09-24
3355,Sold,ross_VRO…,0xe3c98c,1Ξ ($399),"Aug 05, 2020",1,399,2020-08-05
3355,Sold,0x27c79a,ross_VRO…,0.82Ξ ($170),"May 17, 2020",0.82,170,2020-05-17
3355,Sold,Punkofth…,0x27c79a,0.49Ξ ($71),"Jan 07, 2020",0.49,71,2020-01-07
3355,Sold,0x87e225,Punkofth…,0.35Ξ ($77),"Jul 26, 2019",0.35,77,2019-07-26
3355,Sold,0xc00c2b,0x87e225,0.25Ξ ($55),"Jul 19, 2019",0.25,55,2019-07-19
3356,Sold,Hemba,0x727ca3,0.35Ξ ($67),"Jul 11, 2017",0.35,67,2017-07-11
3357,Sold,NeonNFT,itsfine,"2.90Ξ ($1,025)","Sep 26, 2020",2.9,1025,2020-09-26
3357,Sold,0xe4c479,NeonNFT,2.50Ξ ($877),"Sep 26, 2020",2.5,877,2020-09-26
3357,Sold,Hemba,0xe4c479,2.30Ξ ($779),"Sep 24, 2020",2.3,779,2020-09-24
3359,Sold,Hemba,0x727ca3,0.36Ξ ($69),"Jul 11, 2017",0.36,69,2017-07-11
3360,Sold,4069370,16510055,"23Ξ ($45,762)","Feb 20, 2021",23,45762,2021-02-20
3360,Sold,7293485,4069370,"22Ξ ($39,664)","Feb 17, 2021",22,39664,2021-02-17
3361,Sold,Novo311,0x641cf1,"11Ξ ($6,652)","Dec 23, 2020",11,6652,2020-12-23
3361,Sold,Michel_M…,Novo311,"3.95Ξ ($1,451)","Sep 14, 2020",3.95,1451,2020-09-14
3361,Sold,DANNY,Michel_M…,2.50Ξ ($909),"Sep 13, 2020",2.5,909,2020-09-13
3361,Sold,Hemba,DANNY,1.15Ξ ($220),"May 10, 2020",1.15,220,2020-05-10
3362,Sold,5734076,9399070,"24Ξ ($47,350)","Feb 21, 2021",24,47350,2021-02-21
3363,Sold,0x585f98,7435267,0.05Ξ ($16),"Jun 28, 2017",0.05,16,2017-06-28
3364,Sold,0xdbf584,0x076d14,"18.80Ξ ($32,035)","Mar 28, 2021",18.8,32035,2021-03-28
3364,Sold,0x5ff57f,0xdbf584,"6.99Ξ ($10,906)","Feb 03, 2021",6.99,10906,2021-02-03
3364,Sold,Hemba,0x5ff57f,1.05Ξ ($235),"Feb 10, 2020",1.05,235,2020-02-10
3365,Sold,Hemba,@whiz,0.39Ξ ($86),"Nov 06, 2018",0.39,86,2018-11-06
3366,Sold,pleyuh.e…,0x74857f,"24.30Ξ ($45,108)","Mar 14, 2021",24.3,45108,2021-03-14
3366,Sold,Hex,pleyuh.e…,"13.50Ξ ($24,524)","Feb 15, 2021",13.5,24524,2021-02-15
3366,Sold,TokenAng…,Hex,"10Ξ ($18,221)","Feb 15, 2021",10,18221,2021-02-15
3366,Sold,Dude_Nak…,TokenAng…,1.99Ξ ($483),"Jul 22, 2020",1.99,483,2020-07-22
3366,Sold,Hemba,Dude_Nak…,0.11Ξ ($20),"Sep 11, 2018",0.11,20,2018-09-11
3369,Sold,flipper_,WuTangCl…,"5.58Ξ ($1,939)","Oct 04, 2020",5.58,1939,2020-10-04
3369,Sold,redlione…,flipper_,"4.79Ξ ($1,741)","Sep 28, 2020",4.79,1741,2020-09-28
3369,Sold,0x11c9a7,redlione…,"4.20Ξ ($1,503)","Sep 28, 2020",4.2,1503,2020-09-28
3369,Sold,PM_disco…,0x11c9a7,"3.90Ξ ($1,395)","Sep 28, 2020",3.9,1395,2020-09-28
3369,Sold,Hemba,PM_disco…,1.80Ξ ($667),"Sep 20, 2020",1.8,667,2020-09-20
3370,Sold,snax,0x598f44,"27Ξ ($41,756)","Mar 02, 2021",27,41756,2021-03-02
3370,Sold,Hemba,snax,0.14Ξ ($161),"Jan 20, 2018",0.14,161,2018-01-20
3371,Sold,16058782,10361245,0.30Ξ ($26),"Dec 16, 2018",0.3,26,2018-12-16
3371,Sold,5331586,10528156,0.18Ξ ($50),"Jul 03, 2017",0.18,50,2017-07-03
3372,Sold,4656795,12800693,0.70Ξ ($112),"Jan 25, 2020",0.7,112,2020-01-25
3373,Sold,Zieg,TokenAng…,0.75Ξ ($232),"Jun 28, 2019",0.75,232,2019-06-28
3373,Sold,0xd8e806,Zieg,0.20Ξ ($84),"Dec 07, 2017",0.2,84,2017-12-07
3374,Sold,Hemba,0x9e199d,0.28Ξ ($54),"Oct 12, 2018",0.28,54,2018-10-12
3376,Sold,0xcbdde8,tonyherr…,"4Ξ ($1,644)","Oct 24, 2020",4,1644,2020-10-24
3376,Sold,Hemba,KittyGr_…,0.26Ξ ($153),"Jun 08, 2018",0.26,153,2018-06-08
3377,Sold,Hemba,Kenney,0.15Ξ ($57),"Apr 04, 2018",0.15,57,2018-04-04
3378,Sold,0x27c79a,stazie,0.50Ξ ($96),"Apr 23, 2020",0.5,96,2020-04-23
3378,Sold,Goop,0x27c79a,0.48Ξ ($69),"Jan 07, 2020",0.48,69,2020-01-07
3378,Sold,Pixls,Goop,0.39Ξ ($52),"Dec 30, 2019",0.39,52,2019-12-30
3378,Sold,Hemba,Pixls,0.27Ξ ($38),"Dec 30, 2018",0.27,38,2018-12-30
3379,Sold,0x3ff814,charley,"9.40Ξ ($16,932)","Feb 16, 2021",9.4,16932,2021-02-16
3379,Sold,0xa3cb30,0x3ff814,"9.20Ξ ($15,728)","Feb 15, 2021",9.2,15728,2021-02-15
3380,Sold,0xb4d0e8,0xecf0dd,"16.49Ξ ($31,845)","Mar 31, 2021",16.49,31845,2021-03-31
3380,Sold,CryptoPa…,0xb4d0e8,"5Ξ ($9,125)","Feb 14, 2021",5,9125,2021-02-14
3380,Sold,0xb4d0e8,CryptoPa…,"5Ξ ($6,562)","Jan 27, 2021",5,6562,2021-01-27
3380,Sold,Pranksy,0xb4d0e8,"5.35Ξ ($3,678)","Dec 28, 2020",5.35,3678,2020-12-28
3380,Sold,0x3d826e,Pranksy,"3Ξ ($1,906)","Dec 26, 2020",3,1906,2020-12-26
3380,Sold,0x00d7c9,0x3d826e,0.10Ξ ($136),"Jan 14, 2018",0.1,136,2018-01-14
3381,Sold,Hemba,Pixls,0.33Ξ ($44),"Feb 24, 2019",0.33,44,2019-02-24
3382,Sold,KittyGr_…,simontay…,"6Ξ ($2,187)","Oct 09, 2020",6,2187,2020-10-09
3382,Sold,0x00d7c9,KittyGr_…,0.10Ξ ($60),"Jun 08, 2018",0.1,60,2018-06-08
3383,Sold,0xbd17e0,0xe75021,"27.50Ξ ($54,255)","Feb 21, 2021",27.5,54255,2021-02-21
3383,Sold,evkort,0x196a3d,"9.50Ξ ($3,267)","Sep 25, 2020",9.5,3267,2020-09-25
3383,Sold,qiwave,evkort,"8Ξ ($2,935)","Sep 15, 2020",8,2935,2020-09-15
3383,Sold,0x231707,qiwave,"6Ξ ($1,314)","Jun 28, 2020",6,1314,2020-06-28
3384,Sold,0xb6be4d,0xff70ec,"25Ξ ($52,285)","Apr 09, 2021",25,52285,2021-04-09
3384,Sold,EliteCat…,0x46524c,"19.49Ξ ($32,903)","Mar 28, 2021",19.49,32903,2021-03-28
3384,Sold,Pranksy,GoWest23,1Ξ ($161),"Jan 16, 2020",1,161,2020-01-16
3384,Sold,0x00d7c9,Pranksy,0.40Ξ ($118),"Jun 21, 2019",0.4,118,2019-06-21
3385,Sold,0x148940,0x6e513a,"24Ξ ($51,611)","Apr 11, 2021",24,51611,2021-04-11
3385,Sold,Hemba,0x148940,0.13Ξ ($106),"Dec 19, 2017",0.13,106,2017-12-19
3387,Sold,Pranksy,Kataster…,0.60Ξ ($80),"Jan 03, 2020",0.6,80,2020-01-03
3387,Sold,0x00d7c9,Pranksy,0.40Ξ ($118),"Jun 21, 2019",0.4,118,2019-06-21
3388,Sold,Hemba,Cyrus,0.20Ξ ($41),"Oct 23, 2018",0.2,41,2018-10-23
3389,Sold,Pixls,0x84ba38,"20Ξ ($36,029)","Mar 11, 2021",20,36029,2021-03-11
3389,Sold,0x8234be,Pixls,0.35Ξ ($50),"Mar 30, 2019",0.35,50,2019-03-30
3392,Sold,FunBum69,0x701f37,"50.02Ξ ($91,762)","Feb 15, 2021",50.02,91762,2021-02-15
3392,Sold,_K_A_M_I…,BumFun69,2.50Ξ ($617),"Jun 02, 2020",2.5,617,2020-06-02
3392,Sold,MadMax,_K_A_M_I…,1.65Ξ ($334),"May 27, 2020",1.65,334,2020-05-27
3392,Sold,Pranksy,MadMax,1Ξ ($200),"May 15, 2020",1,200,2020-05-15
3392,Sold,0x00d7c9,Pranksy,0.40Ξ ($118),"Jun 21, 2019",0.4,118,2019-06-21
3393,Sold,Snowfro,0x04ae2f,"500Ξ ($954,650)","Mar 13, 2021",500,954650,2021-03-13
3394,Sold,Hemba,0x3f1724,1.30Ξ ($270),"May 22, 2020",1.3,270,2020-05-22
3395,Sold,0x6f1724,12454925,"40Ξ ($71,956)","Mar 21, 2021",40,71956,2021-03-21
3395,Sold,0xde0193,7280420,0.40Ξ ($49),"Jan 16, 2019",0.4,49,2019-01-16
3397,Sold,Pixls,0x374bd1,0.99Ξ ($241),"May 22, 2019",0.99,241,2019-05-22
3397,Sold,0xe45df5,Pixls,0.25Ξ ($22),"Dec 13, 2018",0.25,22,2018-12-13
3399,Sold,0x498f75,0x3dff33,"3Ξ ($1,091)","Sep 15, 2020",3,1091,2020-09-15
3399,Sold,ross_VRO…,0x498f75,1Ξ ($429),"Aug 16, 2020",1,429,2020-08-16
3399,Sold,Hemba,ross_VRO…,0.42Ξ ($57),"Mar 22, 2019",0.42,57,2019-03-22
3402,Sold,0x577ebc,Pranksy,"12Ξ ($21,040)","Feb 09, 2021",12,21040,2021-02-09
3403,Sold,Cyborg,0xe67521,0.32Ξ ($77),"Jul 09, 2017",0.32,77,2017-07-09
3404,Sold,4774681,derekedw…,"3Ξ ($1,677)","Dec 11, 2020",3,1677,2020-12-11
3407,Sold,NeonNFT,TokenAng…,"3.75Ξ ($1,534)","Oct 24, 2020",3.75,1534,2020-10-24
3407,Sold,robers,0x135bd1,"6Ξ ($2,126)","Oct 05, 2020",6,2126,2020-10-05
3407,Sold,Hemba,robers,0.72Ξ ($89),"Mar 23, 2020",0.72,89,2020-03-23
3408,Sold,1723665,8190513,"23.35Ξ ($41,858)","Mar 16, 2021",23.35,41858,2021-03-16
3408,Sold,12743405,1723665,"23Ξ ($41,589)","Mar 12, 2021",23,41589,2021-03-12
3409,Sold,0x51636d,426773,"28Ξ ($49,680)","Mar 12, 2021",28,49680,2021-03-12
3409,Sold,0x74be0a,5333869,"28Ξ ($41,279)","Mar 05, 2021",28,41279,2021-03-05
3409,Sold,0xc272ed,7650826,"17Ξ ($34,135)","Feb 20, 2021",17,34135,2021-02-20
3410,Sold,0x0a4eaf…,0xcf6165,"4.97Ξ ($3,809)","Jan 02, 2021",4.97,3809,2021-01-02
3413,Sold,13886183,13037386,"23.30Ξ ($44,661)","Feb 22, 2021",23.3,44661,2021-02-22
3413,Sold,10734384,13886183,"9.10Ξ ($16,420)","Feb 14, 2021",9.1,16420,2021-02-14
3413,Sold,5966219,48543,0.16Ξ ($47),"Jun 29, 2017",0.16,47,2017-06-29
3414,Sold,Hemba,0x33f848,0.15Ξ ($31),"Oct 23, 2018",0.15,31,2018-10-23
3415,Sold,5331586,45688,0.30Ξ ($83),"Jul 03, 2017",0.3,83,2017-07-03
3416,Sold,VonMises,0xccb77c,"38Ξ ($77,704)","Apr 08, 2021",38,77704,2021-04-08
3416,Sold,j1mmy,0xaf5e63,1Ξ ($213),"May 02, 2020",1,213,2020-05-02
3416,Sold,0x0a4eaf…,j1mmy,0.55Ξ ($97),"Apr 07, 2019",0.55,97,2019-04-07
3416,Sold,0x515a82,0x5b098b,0.25Ξ ($69),"Jul 03, 2017",0.25,69,2017-07-03
3417,Sold,Pranksy,0x912500,0.65Ξ ($114),"Nov 20, 2019",0.65,114,2019-11-20
3417,Sold,0x00d7c9,Pranksy,0.40Ξ ($118),"Jun 21, 2019",0.4,118,2019-06-21
3418,Sold,11200709,13590885,"4.89Ξ ($5,856)","Jan 06, 2021",4.89,5856,2021-01-06
3418,Sold,3699717,11200709,"4.61Ξ ($4,929)","Jan 05, 2021",4.61,4929,2021-01-05
3419,Sold,0xddfdcb,3387770,"22.99Ξ ($38,530)","Mar 07, 2021",22.99,38530,2021-03-07
3419,Sold,0xe281b9,14548427,"22.50Ξ ($43,961)","Feb 21, 2021",22.5,43961,2021-02-21
3419,Sold,0x5b098b,14844345,"7.90Ξ ($14,042)","Feb 11, 2021",7.9,14042,2021-02-11
3419,Sold,0xc00c2b,5966219,0.31Ξ ($83),"Jul 04, 2017",0.31,83,2017-07-04
3421,Sold,0x54b174,0x707fab,"17Ξ ($35,139)","Apr 08, 2021",17,35139,2021-04-08
3421,Sold,0x62bdc6,0x54b174,"15.49Ξ ($33,007)","Apr 06, 2021",15.49,33007,2021-04-06
3421,Sold,vanarman…,wookie.e…,"18.20Ξ ($31,195)","Mar 27, 2021",18.2,31195,2021-03-27
3421,Sold,0xa36e35,vanarman…,"20.99Ξ ($35,300)","Mar 23, 2021",20.99,35300,2021-03-23
3421,Sold,0x939183,0xa36e35,"19Ξ ($33,871)","Mar 19, 2021",19,33871,2021-03-19
3421,Sold,0xbc081c,0x939183,0.15Ξ ($15),"Dec 05, 2018",0.15,15,2018-12-05
3422,Sold,FunBum69,0xa86fd3,"25.25Ξ ($47,512)","Feb 22, 2021",25.25,47512,2021-02-22
3422,Sold,Pranksy,BumFun69,1.89Ξ ($467),"Jun 02, 2020",1.89,467,2020-06-02
3422,Sold,0x00d7c9,Pranksy,0.40Ξ ($118),"Jun 21, 2019",0.4,118,2019-06-21
3425,Sold,0xfaf959…,0x283d4f,"6.66Ξ ($11,636)","Feb 09, 2021",6.66,11636,2021-02-09
3425,Sold,0x387405,0xfaf959…,"4.10Ξ ($4,927)","Jan 17, 2021",4.1,4927,2021-01-17
3426,Sold,0x387405,tonyherr…,"5.12Ξ ($8,657)","Feb 06, 2021",5.12,8657,2021-02-06
3428,Sold,14652859,8801366,"5Ξ ($6,445)","Feb 01, 2021",5,6445,2021-02-01
3428,Sold,12322844,14652859,0.30Ξ ($61),"Jul 27, 2017",0.3,61,2017-07-27
3429,Sold,Pranksy,0xd07ee1,0.70Ξ ($131),"Aug 21, 2019",0.7,131,2019-08-21
3429,Sold,0x00d7c9,Pranksy,0.40Ξ ($118),"Jun 21, 2019",0.4,118,2019-06-21
3430,Sold,Hemba,Kenney,0.15Ξ ($57),"Apr 04, 2018",0.15,57,2018-04-04
3431,Sold,Hemba,Pixls,0.55Ξ ($148),"Jun 16, 2019",0.55,148,2019-06-16
3433,Sold,0x47d4f2,0xad4f67,"22.20Ξ ($36,606)","Feb 24, 2021",22.2,36606,2021-02-24
3433,Sold,W_M_Peas…,0x568cf5,"5.65Ξ ($1,999)","Sep 29, 2020",5.65,1999,2020-09-29
3433,Sold,GoWest23,W_M_Peas…,"5.25Ξ ($1,853)","Sep 29, 2020",5.25,1853,2020-09-29
3433,Sold,Hemba,GoWest23,0.44Ξ ($76),"May 06, 2019",0.44,76,2019-05-06
3436,Sold,Hemba,0x7f6ca7,0.08Ξ ($103),"Jan 09, 2018",0.08,103,2018-01-09
3438,Sold,Hemba,snax,0.11Ξ ($127),"Jan 20, 2018",0.11,127,2018-01-20
3439,Sold,coinduph…,0xcf6165,"4.90Ξ ($3,149)","Dec 26, 2020",4.9,3149,2020-12-26
3439,Sold,0xa84aa4,coinduph…,0.15Ξ ($91),"Apr 21, 2018",0.15,91,2018-04-21
3439,Sold,Hemba,0xa84aa4,0.10Ξ ($52),"Mar 24, 2018",0.1,52,2018-03-24
3440,Sold,Shrugs,0x98c488,1.40Ξ ($289),"May 27, 2020",1.4,289,2020-05-27
3440,Sold,Hemba,Shrugs,0.09Ξ ($122),"Jan 14, 2018",0.09,122,2018-01-14
3441,Sold,0xf1b658,heeee.et…,"30Ξ ($57,112)","Feb 19, 2021",30,57112,2021-02-19
3441,Sold,0xb44969,0xf1b658,"24.99Ξ ($46,121)","Feb 14, 2021",24.99,46121,2021-02-14
3441,Sold,2pac,0xbf6ccf,"7.12Ξ ($4,126)","Dec 24, 2020",7.12,4126,2020-12-24
3441,Sold,0x0ed6fe,0x257e2b,"18Ξ ($6,139)","Oct 08, 2020",18,6139,2020-10-08
3442,Sold,Hemba,0x374bd1,0.44Ξ ($108),"May 23, 2019",0.44,108,2019-05-23
3444,Sold,0x8234be,13011729,0.10Ξ ($68),"Dec 15, 2017",0.1,68,2017-12-15
3445,Sold,Hemba,0x7db525,1.50Ξ ($353),"Jun 01, 2020",1.5,353,2020-06-01
3446,Sold,Hemba,0x196a3d,1.40Ξ ($542),"Sep 13, 2020",1.4,542,2020-09-13
3448,Sold,ChrisR,0xe223cf,0.89Ξ ($345),"Aug 09, 2020",0.89,345,2020-08-09
3448,Sold,Hemba,Pranksy,0.85Ξ ($179),"May 19, 2020",0.85,179,2020-05-19
3449,Sold,Pranksy,VonMises,0.99Ξ ($227),"Jul 01, 2020",0.99,227,2020-07-01
3449,Sold,0x1a96af,Pranksy,0.92Ξ ($186),"May 22, 2020",0.92,186,2020-05-22
3450,Sold,0x0713a6,0x8abfca,"4.25Ξ ($5,791)","Jan 21, 2021",4.25,5791,2021-01-21
3450,Sold,Hemba,0x0713a6,1.05Ξ ($223),"May 08, 2020",1.05,223,2020-05-08
3452,Sold,Punkofth…,0xc1894e,0.50Ξ ($153),"Jul 07, 2019",0.5,153,2019-07-07
3453,Sold,VonMises,PM_disco…,1.20Ξ ($472),"Aug 28, 2020",1.2,472,2020-08-28
3453,Sold,Hemba,VonMises,1.05Ξ ($200),"May 13, 2020",1.05,200,2020-05-13
3454,Sold,0x5fd36a,TokenAng…,"25Ξ ($41,259)","Feb 24, 2021",25,41259,2021-02-24
3454,Sold,0x868540,0x5fd36a,"23.70Ξ ($46,306)","Feb 21, 2021",23.7,46306,2021-02-21
3454,Sold,Hemba,snowfro,0.25Ξ ($29),"Dec 20, 2018",0.25,29,2018-12-20
3455,Sold,0x033ee7,ddaavvee,"7.79Ξ ($13,705)","Feb 09, 2021",7.79,13705,2021-02-09
3455,Sold,0x1d45f1,0x033ee7,"2.95Ξ ($1,020)","Sep 24, 2020",2.95,1020,2020-09-24
3455,Sold,Hemba,0x1d45f1,1Ξ ($380),"Aug 26, 2020",1,380,2020-08-26
3458,Sold,7293485,13886183,"14.75Ξ ($29,685)","Apr 04, 2021",14.75,29685,2021-04-04
3459,Sold,7293485,11423707,"23Ξ ($31,295)","Feb 28, 2021",23,31295,2021-02-28
3460,Sold,7293485,13336946,"23.50Ξ ($33,718)","Mar 01, 2021",23.5,33718,2021-03-01
3464,Sold,ddaavvee,jmg,"8.50Ξ ($3,107)","Oct 16, 2020",8.5,3107,2020-10-16
3465,Sold,ddaavvee,jmg,"8.50Ξ ($3,107)","Oct 16, 2020",8.5,3107,2020-10-16
3467,Sold,968233,489335,"27.99Ξ ($52,740)","Mar 15, 2021",27.99,52740,2021-03-15
3467,Sold,8844177,968233,"23.99Ξ ($41,800)","Mar 11, 2021",23.99,41800,2021-03-11
3467,Sold,7348023,8844177,"18.50Ξ ($33,327)","Mar 11, 2021",18.5,33327,2021-03-11
3467,Sold,14903720,7348023,"6.50Ξ ($10,605)","Feb 03, 2021",6.5,10605,2021-02-03
3467,Sold,14913912,14903720,"5Ξ ($7,767)","Feb 03, 2021",5,7767,2021-02-03
3468,Sold,0xc352b5,15872509,"55Ξ ($100,592)","Mar 30, 2021",55,100592,2021-03-30
3470,Sold,0x62bdc6,1806545,"29.97Ξ ($62,383)","Apr 09, 2021",29.97,62383,2021-04-09
3470,Sold,0xff2854,6471110,"25Ξ ($51,676)","Apr 08, 2021",25,51676,2021-04-08
3470,Sold,0x573199,16722004,"25Ξ ($45,655)","Mar 11, 2021",25,45655,2021-03-11
3470,Sold,0x84c920,5714329,"31Ξ ($45,197)","Feb 28, 2021",31,45197,2021-02-28
3470,Sold,0x231707,8702240,"30Ξ ($57,932)","Feb 22, 2021",30,57932,2021-02-22
3471,Sold,0x9cd85c,7478,0.80Ξ ($200),"Feb 25, 2020",0.8,200,2020-02-25
3471,Sold,jmg,0x9cd85c,1.50Ξ ($213),"Jan 07, 2020",1.5,213,2020-01-07
3471,Sold,0x00d7c9,0x00bd3a,0.28Ξ ($88),"Aug 22, 2017",0.28,88,2017-08-22
3472,Sold,Hemba,0xeb5889,0.14Ξ ($96),"Dec 15, 2017",0.14,96,2017-12-15
3473,Sold,MrNFT,0xf40b3d,2.15Ξ ($703),"Sep 24, 2020",2.15,703,2020-09-24
3473,Sold,0x11c9a7,MrNFT,1.89Ξ ($644),"Sep 23, 2020",1.89,644,2020-09-23
3473,Sold,MrNFT,0x11c9a7,1.84Ξ ($693),"Sep 15, 2020",1.84,693,2020-09-15
3473,Sold,OnlyToas…,MrNFT,1.50Ξ ($565),"Sep 14, 2020",1.5,565,2020-09-14
3473,Sold,Pranksy,OnlyToas…,1.40Ξ ($526),"Sep 14, 2020",1.4,526,2020-09-14
3473,Sold,Hemba,Pranksy,1.40Ξ ($514),"Sep 11, 2020",1.4,514,2020-09-11
3474,Sold,aviexkak…,0xb363cf,"19Ξ ($36,574)","Feb 21, 2021",19,36574,2021-02-21
3474,Sold,GoWest23,0x568cf5,"5.50Ξ ($1,946)","Sep 29, 2020",5.5,1946,2020-09-29
3474,Sold,0x87e225,GoWest23,0.35Ξ ($61),"May 06, 2019",0.35,61,2019-05-06
3474,Sold,Cyborg,0x87e225,0.28Ξ ($42),"Jan 07, 2019",0.28,42,2019-01-07
3474,Sold,0xd8e806,Cyborg,0.18Ξ ($55),"Aug 12, 2017",0.18,55,2017-08-12
3474,Sold,0x0a4eaf…,0xd8e806,0.40Ξ ($90),"Jul 12, 2017",0.4,90,2017-07-12
3476,Sold,Hemba,Kenney,0.15Ξ ($57),"Apr 04, 2018",0.15,57,2018-04-04
3478,Sold,jmg,0x2e2e26,0.29Ξ ($34),"Dec 20, 2018",0.29,34,2018-12-20
3478,Sold,0x58164b,jmg,0.06Ξ ($67),"Jan 07, 2018",0.06,67,2018-01-07
3478,Sold,Hemba,0x58164b,0.37Ξ ($72),"Jul 19, 2017",0.37,72,2017-07-19
3481,Sold,Hemba,Kenney,0.15Ξ ($57),"Apr 04, 2018",0.15,57,2018-04-04
3482,Sold,0xd3e2e7,0xad4f67,"23Ξ ($37,925)","Feb 24, 2021",23,37925,2021-02-24
3482,Sold,0x13816f,0xd3e2e7,"10.88Ξ ($19,954)","Feb 17, 2021",10.88,19954,2021-02-17
3482,Sold,0x3ba9cd,0x13816f,"3.05Ξ ($1,078)","Sep 27, 2020",3.05,1078,2020-09-27
3482,Sold,0x11c9a7,0x3ba9cd,2.25Ξ ($782),"Sep 24, 2020",2.25,782,2020-09-24
3482,Sold,Carlini8,0x11c9a7,2.10Ξ ($677),"Sep 23, 2020",2.1,677,2020-09-23
3482,Sold,Hemba,Carlini8,1.70Ξ ($640),"Sep 14, 2020",1.7,640,2020-09-14
3483,Sold,8533182,3648885,0.13Ξ ($89),"Dec 15, 2017",0.13,89,2017-12-15
3485,Sold,Hemba,0x58164b,0.37Ξ ($72),"Jul 19, 2017",0.37,72,2017-07-19
3486,Sold,Hemba,0x58164b,0.37Ξ ($72),"Jul 19, 2017",0.37,72,2017-07-19
3487,Sold,Hemba,0x58164b,0.37Ξ ($84),"Jul 20, 2017",0.37,84,2017-07-20
3489,Sold,Snowfro,0xb1adce,"130Ξ ($224,930)","Feb 11, 2021",130,224930,2021-02-11
3490,Sold,0xf5099e,robers,0.75Ξ ($110),"Feb 21, 2019",0.75,110,2019-02-21
3490,Sold,0xd8e806,0xa0a59c,0.59Ξ ($175),"Aug 08, 2017",0.59,175,2017-08-08
3490,Sold,0xfb077c,0xd8e806,0.50Ξ ($108),"Jul 21, 2017",0.5,108,2017-07-21
3491,Sold,0x577ebc,553703,"62.99Ξ ($112,919)","Mar 16, 2021",62.99,112919,2021-03-16
3492,Sold,0x20e386,0x045436,1.20Ξ ($465),"Sep 13, 2020",1.2,465,2020-09-13
3495,Sold,Hemba,snowfro,0.41Ξ ($56),"Mar 22, 2019",0.41,56,2019-03-22
3497,Sold,0x62bdc6,point-gr…,"19.97Ξ ($42,945)","Apr 11, 2021",19.97,42945,2021-04-11
3497,Sold,0x9ce03d,0x568cf5,"5.50Ξ ($1,939)","Sep 29, 2020",5.5,1939,2020-09-29
3497,Sold,GoWest23,0x9ce03d,"5.30Ξ ($1,871)","Sep 29, 2020",5.3,1871,2020-09-29
3497,Sold,Hemba,GoWest23,0.46Ξ ($80),"May 06, 2019",0.46,80,2019-05-06
3498,Sold,0xd3e2e7,0xd7e077,"21.67Ξ ($46,469)","Apr 11, 2021",21.67,46469,2021-04-11
3498,Sold,0xac7821,0xd3e2e7,"15.48Ξ ($30,391)","Apr 01, 2021",15.48,30391,2021-04-01
3498,Sold,0x5caff0…,charley,"13Ξ ($25,021)","Feb 19, 2021",13,25021,2021-02-19
3498,Sold,EliteCat…,0x5caff0…,"9Ξ ($16,367)","Feb 14, 2021",9,16367,2021-02-14
3498,Sold,Hemba,GoWest23,0.45Ξ ($78),"May 06, 2019",0.45,78,2019-05-06
3499,Sold,9685518,4885406,2.50Ξ ($821),"Sep 24, 2020",2.5,821,2020-09-24
3499,Sold,1742511,9685518,1.99Ξ ($724),"Aug 02, 2020",1.99,724,2020-08-02
3500,Sold,2pac,0xdf4c62,"3.75Ξ ($2,175)","Dec 14, 2020",3.75,2175,2020-12-14
3500,Sold,0x35cdf4,0x257e2b,"6Ξ ($2,339)","Oct 21, 2020",6,2339,2020-10-21
3500,Sold,Dude_Nak…,0x35cdf4,0.26Ξ ($73),"Aug 15, 2018",0.26,73,2018-08-15
3500,Sold,0x58164b,Dude_Nak…,0.06Ξ ($45),"May 07, 2018",0.06,45,2018-05-07
3501,Sold,8275292,10724436,"26.98Ξ ($43,842)","Feb 25, 2021",26.98,43842,2021-02-25
3501,Sold,14479911,8275292,"22Ξ ($35,015)","Feb 25, 2021",22,35015,2021-02-25
3501,Sold,52816,14479911,"12Ξ ($23,602)","Feb 19, 2021",12,23602,2021-02-19
3504,Sold,MT1000,0xc94845,"5.50Ξ ($7,218)","Jan 27, 2021",5.5,7218,2021-01-27
3504,Sold,0x3d826e,MT1000,"4.50Ξ ($5,598)","Jan 23, 2021",4.5,5598,2021-01-23
3504,Sold,0x00d7c9,0x3d826e,0.10Ξ ($136),"Jan 14, 2018",0.1,136,2018-01-14
3507,Sold,5966219,45688,0.38Ξ ($102),"Jul 04, 2017",0.38,102,2017-07-04
3507,Sold,48543,5966219,0.23Ξ ($70),"Jun 24, 2017",0.23,70,2017-06-24
3508,Sold,6249972,5122632,"23.99Ξ ($41,879)","Mar 12, 2021",23.99,41879,2021-03-12
3509,Sold,Carlini8,0xec4b06,"3.10Ξ ($1,091)","Sep 27, 2020",3.1,1091,2020-09-27
3509,Sold,0xe754d1,Carlini8,"2.95Ξ ($1,047)","Sep 26, 2020",2.95,1047,2020-09-26
3509,Sold,Pranksy,0xe754d1,2.49Ξ ($856),"Sep 24, 2020",2.49,856,2020-09-24
3509,Sold,MrNFT,Pranksy,2.16Ξ ($707),"Sep 24, 2020",2.16,707,2020-09-24
3509,Sold,natealex,MrNFT,1.87Ξ ($642),"Sep 22, 2020",1.87,642,2020-09-22
3509,Sold,0x3a8441,natealex,1Ξ ($364),"Sep 11, 2020",1,364,2020-09-11
3510,Sold,shilpixe…,0x3f1724,1Ξ ($200),"May 17, 2020",1,200,2020-05-17
3511,Sold,0x0bf913,2187245,0.35Ξ ($285),"Feb 08, 2018",0.35,285,2018-02-08
3511,Sold,0x7eb46d,784659,0.05Ξ ($46),"Feb 02, 2018",0.05,46,2018-02-02
3511,Sold,0x4d17cf,8303725,0.10Ξ ($79),"Dec 21, 2017",0.1,79,2017-12-21
3512,Sold,0xfc2a61,0xea1218,"21.50Ξ ($38,857)","Mar 12, 2021",21.5,38857,2021-03-12
3512,Sold,0x0a4eaf…,0x979a0c,"7.80Ξ ($14,078)","Feb 13, 2021",7.8,14078,2021-02-13
3512,Sold,Cyborg,0x0a4eaf…,0.28Ξ ($42),"Jan 07, 2019",0.28,42,2019-01-07
3512,Sold,0xd8e806,Cyborg,0.18Ξ ($55),"Aug 12, 2017",0.18,55,2017-08-12
3512,Sold,Hemba,0xd8e806,0.42Ξ ($87),"Jul 13, 2017",0.42,87,2017-07-13
3513,Sold,12192872,337252,"24.50Ξ ($51,000)","Apr 09, 2021",24.5,51000,2021-04-09
3514,Sold,0xa0a611,0x3cd607,"16Ξ ($32,717)","Apr 08, 2021",16,32717,2021-04-08
3514,Sold,Pranksy,0xa0a611,"15Ξ ($29,460)","Apr 07, 2021",15,29460,2021-04-07
3514,Sold,0x5f5df4,Pranksy,"21.99Ξ ($39,763)","Mar 12, 2021",21.99,39763,2021-03-12
3515,Sold,0x33c265,8170182,"14Ξ ($25,691)","Feb 17, 2021",14,25691,2021-02-17
3515,Sold,0x13816f,2627689,"6.48Ξ ($8,235)","Jan 27, 2021",6.48,8235,2021-01-27
3515,Sold,0xa7eba7,1278319,"5.74Ξ ($1,994)","Oct 03, 2020",5.74,1994,2020-10-03
3519,Sold,donated.…,0xff70ec,"48Ξ ($87,510)","Mar 20, 2021",48,87510,2021-03-20
3519,Sold,0x5f5df4,donated.…,"41.50Ξ ($74,264)","Mar 12, 2021",41.5,74264,2021-03-12
3520,Sold,CPyrc,0xbec69d,"21Ξ ($43,407)","Apr 08, 2021",21,43407,2021-04-08
3520,Sold,0xa3cb30,CPyrc,"18Ξ ($33,184)","Mar 30, 2021",18,33184,2021-03-30
3521,Sold,7595912,5734076,"9.90Ξ ($18,157)","Feb 17, 2021",9.9,18157,2021-02-17
3521,Sold,14966261,7595912,0.60Ξ ($87),"Jan 10, 2020",0.6,87,2020-01-10
3523,Sold,0x0a4eaf…,ddaavvee,"3.70Ξ ($1,333)","Sep 27, 2020",3.7,1333,2020-09-27
3523,Sold,Hemba,0x0a4eaf…,0.12Ξ ($13),"Nov 26, 2018",0.12,13,2018-11-26
3528,Sold,0xa3cb30,6179835,"9.97Ξ ($13,293)","Feb 01, 2021",9.97,13293,2021-02-01
3529,Sold,renaissa…,Kataster…,"19.99Ξ ($41,320)","Apr 08, 2021",19.99,41320,2021-04-08
3529,Sold,0xa3cb30,renaissa…,"19Ξ ($35,111)","Mar 31, 2021",19,35111,2021-03-31
3530,Sold,0x78b57b,Deeze,"14.50Ξ ($28,718)","Apr 07, 2021",14.5,28718,2021-04-07
3530,Sold,0x22c41c,0x78b57b,"17Ξ ($24,788)","Mar 05, 2021",17,24788,2021-03-05
3530,Sold,0xeb725f,0x22c41c,"21.40Ξ ($41,020)","Feb 22, 2021",21.4,41020,2021-02-22
3530,Sold,0xdbc416,0xeb725f,"11.50Ξ ($21,225)","Feb 17, 2021",11.5,21225,2021-02-17
3530,Sold,ChrisR,0xdbc416,0.98Ξ ($351),"Sep 09, 2020",0.98,351,2020-09-09
3530,Sold,0x5b098b,Pranksy,0.85Ξ ($172),"May 22, 2020",0.85,172,2020-05-22
3530,Sold,Hemba,0x5b098b,0.15Ξ ($43),"Jun 27, 2017",0.15,43,2017-06-27
3533,Sold,gaus,0x0154d2,2.20Ξ ($763),"Oct 04, 2020",2.2,763,2020-10-04
3533,Sold,0x11c9a7,gaus,"3.40Ξ ($1,219)","Sep 28, 2020",3.4,1219,2020-09-28
3533,Sold,0x5aaeb9,0x11c9a7,"3Ξ ($1,062)","Sep 27, 2020",3,1062,2020-09-27
3533,Sold,0xe7be0f,0x5aaeb9,"3Ξ ($1,065)","Sep 26, 2020",3,1065,2020-09-26
3533,Sold,0x5aaeb9,0xe7be0f,"2.90Ξ ($1,000)","Sep 25, 2020",2.9,1000,2020-09-25
3533,Sold,0x5e7ee9,0x5aaeb9,2.60Ξ ($913),"Sep 24, 2020",2.6,913,2020-09-24
3533,Sold,Hemba,0x5e7ee9,2.30Ξ ($796),"Sep 24, 2020",2.3,796,2020-09-24
3534,Sold,8950323,5529929,"21Ξ ($44,108)","Apr 05, 2021",21,44108,2021-04-05
3534,Sold,10734384,8950323,"19.99Ξ ($36,853)","Mar 30, 2021",19.99,36853,2021-03-30
3539,Sold,0x963331,0x068315,"24.99Ξ ($43,681)","Mar 12, 2021",24.99,43681,2021-03-12
3539,Sold,0x691b87,0x963331,"23.99Ξ ($40,430)","Feb 23, 2021",23.99,40430,2021-02-23
3539,Sold,0x13816f,0xeb725f,"13.33Ξ ($24,602)","Feb 17, 2021",13.33,24602,2021-02-17
3539,Sold,0x87755c,0x13816f,"5.38Ξ ($1,869)","Oct 03, 2020",5.38,1869,2020-10-03
3539,Sold,Carlini8,0x87755c,"5.10Ξ ($1,860)","Sep 28, 2020",5.1,1860,2020-09-28
3539,Sold,Thing,Carlini8,"4.95Ξ ($1,778)","Sep 28, 2020",4.95,1778,2020-09-28
3539,Sold,0x231707,Thing,"4Ξ ($1,432)","Sep 28, 2020",4,1432,2020-09-28
3540,Sold,55241,7435267,0.05Ξ ($29),"Jun 01, 2018",0.05,29,2018-06-01
3541,Sold,Hemba,snowfro,0.20Ξ ($20),"Dec 05, 2018",0.2,20,2018-12-05
3542,Sold,wookie.e…,0xc40913,"23Ξ ($42,002)","Mar 11, 2021",23,42002,2021-03-11
3542,Sold,0x90b653,wookie.e…,"21Ξ ($32,153)","Mar 05, 2021",21,32153,2021-03-05
3542,Sold,0x00d7c9,0x90b653,0.05Ξ ($29),"May 31, 2018",0.05,29,2018-05-31
3543,Sold,ross_VRO…,0x3a4930,"2.99Ξ ($1,045)","Sep 07, 2020",2.99,1045,2020-09-07
3543,Sold,Pranksy,ross_VRO…,1.50Ξ ($198),"Dec 30, 2019",1.5,198,2019-12-30
3543,Sold,0x00d7c9,0x7e5280,0.70Ξ ($115),"Apr 13, 2019",0.7,115,2019-04-13
3544,Sold,0xa3cb30,0x516358,"16.50Ξ ($34,213)","Apr 04, 2021",16.5,34213,2021-04-04
3544,Sold,0x5b098b,0x00bd9f,0.15Ξ ($44),"Jun 29, 2017",0.15,44,2017-06-29
3544,Sold,Hemba,0x5b098b,0.15Ξ ($43),"Jun 27, 2017",0.15,43,2017-06-27
3545,Sold,0xe96c3e,0xc352b5,0.95Ξ ($215),"Feb 08, 2020",0.95,215,2020-02-08
3545,Sold,Hemba,el,0.20Ξ ($59),"Sep 01, 2018",0.2,59,2018-09-01
3547,Sold,55241,2652949,0.40Ξ ($400),"Jan 22, 2018",0.4,400,2018-01-22
3548,Sold,5734076,328685,"35Ξ ($64,685)","Mar 20, 2021",35,64685,2021-03-20
3549,Sold,itsfine,0xcf6165,"5.12Ξ ($3,330)","Dec 27, 2020",5.12,3330,2020-12-27
3549,Sold,NeonNFT,itsfine,"2.90Ξ ($1,025)","Sep 26, 2020",2.9,1025,2020-09-26
3549,Sold,0xe4c479,NeonNFT,2.50Ξ ($877),"Sep 26, 2020",2.5,877,2020-09-26
3549,Sold,Hemba,0xe4c479,2.30Ξ ($779),"Sep 24, 2020",2.3,779,2020-09-24
3550,Sold,Hemba,0x6be450…,0.16Ξ ($89),"Mar 20, 2018",0.16,89,2018-03-20
3552,Sold,Hemba,0x98c488,0.85Ξ ($337),"Aug 23, 2020",0.85,337,2020-08-23
3553,Sold,0x023ef7,0x516358,"19.96Ξ ($42,999)","Apr 12, 2021",19.96,42999,2021-04-12
3553,Sold,444.eth,0x023ef7,"17Ξ ($36,088)","Apr 10, 2021",17,36088,2021-04-10
3553,Sold,0x5aaeb9,gaus,2.70Ξ ($931),"Sep 25, 2020",2.7,931,2020-09-25
3553,Sold,redlione…,0x5aaeb9,2.49Ξ ($862),"Sep 24, 2020",2.49,862,2020-09-24
3553,Sold,Pranksy,redlione…,2.19Ξ ($757),"Sep 24, 2020",2.19,757,2020-09-24
3553,Sold,Hemba,Pranksy,1.80Ξ ($613),"Sep 22, 2020",1.8,613,2020-09-22
3558,Sold,5734076,4069370,"24Ξ ($43,674)","Feb 15, 2021",24,43674,2021-02-15
3559,Sold,5791640,8010080,"5Ξ ($1,872)","Oct 12, 2020",5,1872,2020-10-12
3561,Sold,0x62bdc6,0x84d34f,"18.90Ξ ($34,262)","Mar 11, 2021",18.9,34262,2021-03-11
3561,Sold,Bombard,0x62bdc6,"18.59Ξ ($33,069)","Mar 11, 2021",18.59,33069,2021-03-11
3561,Sold,0x3e17fa,Bombard,"8.60Ξ ($15,089)","Feb 16, 2021",8.6,15089,2021-02-16
3561,Sold,CPyrc,0x3e17fa,2.79Ξ ($965),"Sep 24, 2020",2.79,965,2020-09-24
3561,Sold,Pranksy,CPyrc,2.19Ξ ($736),"Sep 24, 2020",2.19,736,2020-09-24
3561,Sold,Hemba,Pranksy,1.80Ξ ($613),"Sep 22, 2020",1.8,613,2020-09-22
3562,Sold,Hemba,daLenz,1.30Ξ ($307),"Jun 12, 2020",1.3,307,2020-06-12
3563,Sold,Lumberg,0x341e1c,1.95Ξ ($749),"Sep 12, 2020",1.95,749,2020-09-12
3563,Sold,barthazi…,Lumberg,1.20Ξ ($271),"Jul 02, 2020",1.2,271,2020-07-02
3563,Sold,ross_VRO…,barthazi…,0.75Ξ ($96),"Mar 29, 2020",0.75,96,2020-03-29
3563,Sold,0x0553de,ross_VRO…,0.74Ξ ($123),"Jan 17, 2020",0.74,123,2020-01-17
3563,Sold,0x00d7c9,0x0553de,0.40Ξ ($84),"Aug 09, 2019",0.4,84,2019-08-09
3565,Sold,0x3921bc,0xe41691,"23.10Ξ ($41,569)","Mar 15, 2021",23.1,41569,2021-03-15
3565,Sold,0x8f6b1e,0x3921bc,"20Ξ ($36,128)","Mar 11, 2021",20,36128,2021-03-11
3565,Sold,0x0503ed,0xd030b1,"6.50Ξ ($11,397)","Feb 09, 2021",6.5,11397,2021-02-09
3565,Sold,SpacedPa…,0x0503ed,"3.04Ξ ($4,324)","Jan 25, 2021",3.04,4324,2021-01-25
3565,Sold,0xf28820,SpacedPa…,2.20Ξ ($818),"Sep 15, 2020",2.2,818,2020-09-15
3565,Sold,Pranksy,0xf28820,1.50Ξ ($554),"Sep 11, 2020",1.5,554,2020-09-11
3565,Sold,Hemba,Pranksy,1.40Ξ ($514),"Sep 11, 2020",1.4,514,2020-09-11
3566,Sold,10734384,13874341,"19Ξ ($34,810)","Mar 29, 2021",19,34810,2021-03-29
3569,Sold,0x8bd9c4,🏃🏻‍♂.e…,"27.90Ξ ($58,260)","Apr 09, 2021",27.9,58260,2021-04-09
3569,Sold,Tschuuul…,0x8bd9c4,"27Ξ ($36,928)","Feb 28, 2021",27,36928,2021-02-28
3569,Sold,0x581b59,Tschuuul…,0.45Ξ ($121),"Jul 11, 2019",0.45,121,2019-07-11
3569,Sold,Hemba,0x61e7e7,0.50Ξ ($84),"May 07, 2019",0.5,84,2019-05-07
3570,Sold,8533182,13053754,0.14Ξ ($60),"Apr 11, 2018",0.14,60,2018-04-11
3571,Sold,VonMises,0xdc5556,"35Ξ ($55,835)","Feb 23, 2021",35,55835,2021-02-23
3571,Sold,jmg,VonMises,2Ξ ($376),"May 11, 2020",2,376,2020-05-11
3571,Sold,Hemba,jmg,1.10Ξ ($177),"Jan 25, 2020",1.1,177,2020-01-25
3572,Sold,0xb277e2,0x4223e1,"24.75Ξ ($53,083)","Apr 11, 2021",24.75,53083,2021-04-11
3572,Sold,gen0x.et…,0xb277e2,"23.55Ξ ($40,620)","Mar 16, 2021",23.55,40620,2021-03-16
3572,Sold,0x5b4cad,gen0x.et…,"15.70Ξ ($30,760)","Feb 20, 2021",15.7,30760,2021-02-20
3572,Sold,0x033ee7,0x5b4cad,"5.68Ξ ($7,298)","Jan 27, 2021",5.68,7298,2021-01-27
3572,Sold,0x1d45f1,0x033ee7,"3.45Ξ ($1,193)","Sep 24, 2020",3.45,1193,2020-09-24
3572,Sold,0x1f8add,Unknown7…,0.96Ξ ($374),"Aug 09, 2020",0.96,374,2020-08-09
3572,Sold,Hemba,0x1f8add,0.80Ξ ($162),"May 15, 2020",0.8,162,2020-05-15
3574,Sold,Hemba,Kenney,0.15Ξ ($157),"Jan 26, 2018",0.15,157,2018-01-26
3575,Sold,Hemba,0x96b48f,0.25Ξ ($98),"Sep 01, 2017",0.25,98,2017-09-01
3576,Sold,stoic,0xfec1f0,"8.10Ξ ($14,509)","Feb 16, 2021",8.1,14509,2021-02-16
3576,Sold,lemondro…,stoic,"7Ξ ($12,721)","Feb 13, 2021",7,12721,2021-02-13
3576,Sold,kyloren,0xd461c0,"5.25Ξ ($6,746)","Jan 27, 2021",5.25,6746,2021-01-27
3576,Sold,Carlini8,kyloren,"5.25Ξ ($1,853)","Sep 29, 2020",5.25,1853,2020-09-29
3576,Sold,Loopify,Carlini8,"5Ξ ($1,816)","Sep 28, 2020",5,1816,2020-09-28
3576,Sold,cryptoke…,Loopify,"4.19Ξ ($1,501)","Sep 28, 2020",4.19,1501,2020-09-28
3576,Sold,0xe754d1,cryptoke…,"3.39Ξ ($1,217)","Sep 28, 2020",3.39,1217,2020-09-28
3576,Sold,Pranksy,0xe754d1,"3.20Ξ ($1,135)","Sep 27, 2020",3.2,1135,2020-09-27
3576,Sold,Hemba,Pranksy,2.30Ξ ($796),"Sep 24, 2020",2.3,796,2020-09-24
3577,Sold,0x51149c,0xd94be5,"24Ξ ($49,608)","Apr 08, 2021",24,49608,2021-04-08
3577,Sold,heeee.et…,0x51149c,"21.99Ξ ($36,763)","Mar 24, 2021",21.99,36763,2021-03-24
3577,Sold,0xa2ef16,heeee.et…,"21.12Ξ ($35,893)","Mar 23, 2021",21.12,35893,2021-03-23
3577,Sold,0x13816f,0xa2ef16,"7.10Ξ ($12,902)","Feb 13, 2021",7.1,12902,2021-02-13
3577,Sold,gaus,AZonneve…,0.02Ξ ($7),"Oct 04, 2020",0.02,7,2020-10-04
3577,Sold,0x11c9a7,gaus,"3.40Ξ ($1,219)","Sep 28, 2020",3.4,1219,2020-09-28
3577,Sold,GoWest23,0x11c9a7,"3.25Ξ ($1,149)","Sep 27, 2020",3.25,1149,2020-09-27
3577,Sold,Hemba,GoWest23,0.44Ξ ($76),"May 06, 2019",0.44,76,2019-05-06
3578,Sold,0x00d7c9,Cryptokk…,0.60Ξ ($83),"Mar 06, 2019",0.6,83,2019-03-06
3580,Sold,0x033ee7,0xc9ab58,"5.75Ξ ($7,574)","Feb 01, 2021",5.75,7574,2021-02-01
3580,Sold,NeonNFT,0x033ee7,2.45Ξ ($848),"Sep 24, 2020",2.45,848,2020-09-24
3580,Sold,Pranksy,NeonNFT,2.19Ξ ($757),"Sep 24, 2020",2.19,757,2020-09-24
3580,Sold,Hemba,Pranksy,1.80Ξ ($613),"Sep 22, 2020",1.8,613,2020-09-22
3581,Sold,0x287b15,0xa76119,"14.50Ξ ($24,732)","Mar 27, 2021",14.5,24732,2021-03-27
3581,Sold,Hemba,0x287b15,0.16Ξ ($218),"Jan 14, 2018",0.16,218,2018-01-14
3583,Sold,Pranksy,0xc5b4e3,"2.99Ξ ($1,038)","Sep 25, 2020",2.99,1038,2020-09-25
3583,Sold,Hemba,Pranksy,2.30Ξ ($796),"Sep 24, 2020",2.3,796,2020-09-24
3584,Sold,Hemba,0xb6e578,0.30Ξ ($38),"Jan 10, 2019",0.3,38,2019-01-10
3585,Sold,4656795,8669529,0.55Ξ ($143),"May 19, 2019",0.55,143,2019-05-19
3586,Sold,10937065,7301812,"22.48Ξ ($33,360)","Mar 02, 2021",22.48,33360,2021-03-02
3587,Sold,3603416,3895285,"42Ξ ($80,506)","Feb 22, 2021",42,80506,2021-02-22
3587,Sold,6666831,3603416,"24.50Ξ ($47,563)","Feb 21, 2021",24.5,47563,2021-02-21
3587,Sold,6576776,6666831,"19.80Ξ ($36,786)","Feb 18, 2021",19.8,36786,2021-02-18
3587,Sold,55241,4657325,0.10Ξ ($58),"May 31, 2018",0.1,58,2018-05-31
3588,Sold,CPyrc,0xe5e771,2.79Ξ ($953),"Sep 23, 2020",2.79,953,2020-09-23
3588,Sold,OnlyToas…,CPyrc,2Ξ ($770),"Sep 19, 2020",2,770,2020-09-19
3588,Sold,Carlini8,OnlyToas…,"3Ξ ($1,135)","Sep 15, 2020",3,1135,2020-09-15
3588,Sold,Pranksy,Carlini8,2.20Ξ ($827),"Sep 14, 2020",2.2,827,2020-09-14
3588,Sold,juggerna…,alxo,0.25Ξ ($38),"Nov 23, 2019",0.25,38,2019-11-23
3589,Sold,0x691b87,0x51636d,"41Ξ ($65,920)","Mar 03, 2021",41,65920,2021-03-03
3589,Sold,0x48c85c,0xeb725f,"39.95Ξ ($76,576)","Feb 22, 2021",39.95,76576,2021-02-22
3589,Sold,0x3e17fa,0x48c85c,"22Ξ ($44,035)","Feb 20, 2021",22,44035,2021-02-20
3589,Sold,TokenAng…,0x3e17fa,"22.50Ξ ($42,562)","Feb 18, 2021",22.5,42562,2021-02-18
3589,Sold,0x99b884,TokenAng…,2Ξ ($528),"Jun 14, 2019",2,528,2019-06-14
3591,Sold,Hemba,gigimaur…,0.12Ξ ($19),"Nov 19, 2018",0.12,19,2018-11-19
3592,Sold,0xa1179f,ross_VRO…,"5Ξ ($1,007)","May 26, 2020",5,1007,2020-05-26
3592,Sold,0x00d7c9,0xa1179f,0.50Ξ ($87),"Apr 18, 2019",0.5,87,2019-04-18
3593,Sold,CPyrc,snax,"3.40Ξ ($1,194)","Sep 24, 2020",3.4,1194,2020-09-24
3593,Sold,0x20e386,CPyrc,1.20Ξ ($465),"Sep 13, 2020",1.2,465,2020-09-13
3595,Sold,0x48db19,0xaf5e63,1.25Ξ ($538),"Aug 16, 2020",1.25,538,2020-08-16
3596,Sold,11642997,942439,"14.90Ξ ($29,396)","Feb 21, 2021",14.9,29396,2021-02-21
3596,Sold,337252,11642997,"14Ξ ($27,546)","Feb 21, 2021",14,27546,2021-02-21
3596,Sold,2233870,14215174,0.38Ξ ($85),"Jul 12, 2017",0.38,85,2017-07-12
3599,Sold,0x4affe1,0x6611fe,"22.47Ξ ($40,113)","Mar 15, 2021",22.47,40113,2021-03-15
3599,Sold,0x48db19,MadMax,"22Ξ ($34,424)","Feb 23, 2021",22,34424,2021-02-23
3601,Sold,16058782,Liber8Ho…,0.40Ξ ($58),"Dec 04, 2019",0.4,58,2019-12-04
3601,Sold,2293507,0xa0a59c,0.30Ξ ($89),"Aug 10, 2017",0.3,89,2017-08-10
3607,Sold,10734384,5091805,"15Ξ ($27,653)","Mar 30, 2021",15,27653,2021-03-30
3608,Sold,TweetyPi…,Kenney,1.25Ξ ($294),"May 31, 2020",1.25,294,2020-05-31
3608,Sold,juggerna…,0x3b6259,1.34Ξ ($275),"May 24, 2020",1.34,275,2020-05-24
3609,Sold,0x4eb676,0x8847be,"375Ξ ($683,055)","Mar 29, 2021",375,683055,2021-03-29
3609,Sold,0xef466e,0x4eb676,"369Ξ ($565,998)","Mar 05, 2021",369,565998,2021-03-05
3610,Sold,0xa3cb30,wookie.e…,"15Ξ ($31,505)","Apr 05, 2021",15,31505,2021-04-05
3611,Sold,784659,16745492,0.23Ξ ($59),"Jul 01, 2017",0.23,59,2017-07-01
3612,Sold,EliteCat…,0xae43b2,"13.89Ξ ($26,275)","Feb 18, 2021",13.89,26275,2021-02-18
3612,Sold,0x87e225,GoWest23,0.40Ξ ($69),"May 06, 2019",0.4,69,2019-05-06
3612,Sold,Hemba,0x87e225,0.30Ξ ($46),"Jan 07, 2019",0.3,46,2019-01-07
3613,Sold,GtC,0x268169,"7.50Ξ ($9,611)","Jan 26, 2021",7.5,9611,2021-01-26
3613,Sold,0x00d7c9,GtC,0.50Ξ ($89),"Sep 02, 2019",0.5,89,2019-09-02
3614,Sold,961732,ross_VRO…,"9.99Ξ ($3,616)","Sep 28, 2020",9.99,3616,2020-09-28
3614,Sold,14966261,0x370638,0.29Ξ ($85),"Jun 29, 2017",0.29,85,2017-06-29
3614,Sold,784659,0xe45df5,0.15Ξ ($42),"Jun 25, 2017",0.15,42,2017-06-25
3615,Sold,0x33b17a,16740588,"24.60Ξ ($44,862)","Mar 19, 2021",24.6,44862,2021-03-19
3615,Sold,0x3a4930,3387770,"24Ξ ($45,872)","Mar 14, 2021",24,45872,2021-03-14
3615,Sold,0x1a96af,3819824,1.95Ξ ($699),"Sep 14, 2020",1.95,699,2020-09-14
3617,Sold,ark1,0x0a4eaf…,0.30Ξ ($48),"Nov 21, 2019",0.3,48,2019-11-21
3617,Sold,0x00d7c9,ark1,0.25Ξ ($47),"Sep 15, 2019",0.25,47,2019-09-15
3618,Sold,0x00d7c9,2652949,0.20Ξ ($200),"Jan 22, 2018",0.2,200,2018-01-22
3619,Sold,Cyborg,0x94c1d7,0.17Ξ ($122),"Dec 17, 2017",0.17,122,2017-12-17
3619,Sold,0xbc081c,Cyborg,0.15Ξ ($44),"Sep 29, 2017",0.15,44,2017-09-29
3621,Sold,16033653,willholt…,"20Ξ ($41,340)","Apr 08, 2021",20,41340,2021-04-08
3621,Sold,11976269,0xf4a775,0.09Ξ ($42),"Dec 03, 2017",0.09,42,2017-12-03
3622,Sold,10288454,16439346,"27Ξ ($48,546)","Mar 16, 2021",27,48546,2021-03-16
3622,Sold,12743405,10288454,"17Ξ ($34,097)","Feb 20, 2021",17,34097,2021-02-20
3623,Sold,shilpixe…,TokenAng…,1Ξ ($309),"Jun 28, 2019",1,309,2019-06-28
3624,Sold,6689278,45688,0.10Ξ ($24),"Jul 07, 2017",0.1,24,2017-07-07
3626,Sold,755965,9952039,"25.75Ξ ($47,687)","Mar 20, 2021",25.75,47687,2021-03-20
3631,Sold,Pranksy,PB,1Ξ ($209),"May 03, 2020",1,209,2020-05-03
3631,Sold,0x00d7c9,Pranksy,0.40Ξ ($118),"Jun 21, 2019",0.4,118,2019-06-21
3633,Sold,0x257e2b,0xdffbaf,"5.80Ξ ($2,173)","Oct 15, 2020",5.8,2173,2020-10-15
3633,Sold,j1mmy,0x257e2b,"5.60Ξ ($1,911)","Oct 07, 2020",5.6,1911,2020-10-07
3633,Sold,VonMises,j1mmy,1.65Ξ ($345),"May 24, 2020",1.65,345,2020-05-24
3633,Sold,0x0553de,VonMises,0.89Ξ ($190),"May 09, 2020",0.89,190,2020-05-09
3633,Sold,0x00d7c9,0x0553de,0.40Ξ ($118),"Jun 21, 2019",0.4,118,2019-06-21
3634,Sold,0x44da37,0x752f4a,"21Ξ ($37,919)","Mar 21, 2021",21,37919,2021-03-21
3634,Sold,0xcded7e,0x44da37,"23Ξ ($41,956)","Mar 19, 2021",23,41956,2021-03-19
3634,Sold,0x73e788,0xcded7e,"21.80Ξ ($39,625)","Mar 18, 2021",21.8,39625,2021-03-18
3634,Sold,0xc2b3cb,0x73e788,"22.50Ξ ($39,278)","Mar 12, 2021",22.5,39278,2021-03-12
3634,Sold,0x6611fe,0xc2b3cb,"21.25Ξ ($39,109)","Mar 11, 2021",21.25,39109,2021-03-11
3638,Sold,8303725,10361245,0.30Ξ ($59),"Oct 12, 2018",0.3,59,2018-10-12
3638,Sold,14215174,8303725,0.20Ξ ($140),"Dec 13, 2017",0.2,140,2017-12-13
3638,Sold,55241,14215174,0.30Ξ ($69),"Jul 22, 2017",0.3,69,2017-07-22
3639,Sold,0x5b098b,7293485,0.32Ξ ($86),"Jul 04, 2017",0.32,86,2017-07-04
3640,Sold,5966219,5875017,"6.40Ξ ($11,108)","Feb 09, 2021",6.4,11108,2021-02-09
3641,Sold,KittyGr_…,Hex,"5Ξ ($1,769)","Oct 05, 2020",5,1769,2020-10-05
3641,Sold,0x00d7c9,KittyGr_…,0.10Ξ ($60),"Jun 08, 2018",0.1,60,2018-06-08
3643,Sold,Hemba,0x0084a8,0.09Ξ ($76),"Feb 21, 2018",0.09,76,2018-02-21
3644,Sold,55241,12920385,0.10Ξ ($80),"Dec 20, 2017",0.1,80,2017-12-20
3649,Sold,MrTpunks,NFTinTin,"12.50Ξ ($4,599)","Oct 17, 2020",12.5,4599,2020-10-17
3649,Sold,GoWest23,MrTpunks,"14.25Ξ ($5,100)","Sep 28, 2020",14.25,5100,2020-09-28
3649,Sold,jmg,GoWest23,0.99Ξ ($243),"May 23, 2019",0.99,243,2019-05-23
3649,Sold,0x00d7c9,0x00bd3a,0.40Ξ ($95),"Jul 09, 2017",0.4,95,2017-07-09
3650,Sold,0xa3c277,3641651,"19.25Ξ ($39,363)","Apr 08, 2021",19.25,39363,2021-04-08
3650,Sold,0x7efb83,10732151,"26Ξ ($46,788)","Mar 15, 2021",26,46788,2021-03-15
3651,Sold,zonted,0x3e17fa,"7Ξ ($2,463)","Sep 27, 2020",7,2463,2020-09-27
3651,Sold,ross_VRO…,zonted,"4.99Ξ ($1,847)","Sep 12, 2020",4.99,1847,2020-09-12
3651,Sold,0x00d7c9,ross_VRO…,0.70Ξ ($115),"Apr 13, 2019",0.7,115,2019-04-13
3652,Sold,Pranksy,0x3a4930,2.19Ξ ($736),"Sep 24, 2020",2.19,736,2020-09-24
3652,Sold,Hemba,Pranksy,1.80Ξ ($613),"Sep 22, 2020",1.8,613,2020-09-22
3653,Sold,weshardi…,0x1a4d11,"37Ξ ($66,432)","Mar 15, 2021",37,66432,2021-03-15
3653,Sold,VonMises,0xeb725f,"25Ξ ($48,702)","Feb 21, 2021",25,48702,2021-02-21
3653,Sold,Pranksy,VonMises,1.50Ξ ($318),"May 08, 2020",1.5,318,2020-05-08
3653,Sold,0x1a96af,Pranksy,0.99Ξ ($182),"Apr 18, 2020",0.99,182,2020-04-18
3653,Sold,Punkofth…,0xe45df5,0.29Ξ ($82),"Jul 02, 2017",0.29,82,2017-07-02
3654,Sold,Carlini8,0x7b6107,"19.99Ξ ($38,480)","Feb 21, 2021",19.99,38480,2021-02-21
3654,Sold,0x13816f,Carlini8,"8.88Ξ ($15,383)","Feb 15, 2021",8.88,15383,2021-02-15
3654,Sold,0x3ba9cd,0x13816f,"3.15Ξ ($1,114)","Sep 27, 2020",3.15,1114,2020-09-27
3654,Sold,redlione…,0x3ba9cd,2.10Ξ ($712),"Sep 23, 2020",2.1,712,2020-09-23
3654,Sold,CPyrc,redlione…,1.40Ξ ($526),"Sep 14, 2020",1.4,526,2020-09-14
3654,Sold,Pranksy,CPyrc,1.25Ξ ($459),"Sep 11, 2020",1.25,459,2020-09-11
3654,Sold,PM_disco…,Pranksy,1.15Ξ ($419),"Sep 11, 2020",1.15,419,2020-09-11
3654,Sold,ross_VRO…,PM_disco…,1Ξ ($236),"Jun 12, 2020",1,236,2020-06-12
3654,Sold,Pranksy,ross_VRO…,0.55Ξ ($79),"Jan 07, 2020",0.55,79,2020-01-07
3654,Sold,0x00d7c9,Pranksy,0.40Ξ ($118),"Jun 21, 2019",0.4,118,2019-06-21
3655,Sold,CryptoNF…,0xcf6165,"5Ξ ($3,213)","Dec 26, 2020",5,3213,2020-12-26
3655,Sold,Hemba,CryptoNF…,0.88Ξ ($311),"Sep 06, 2020",0.88,311,2020-09-06
3658,Sold,0x3e17fa,0x_NFT,"3.40Ξ ($1,574)","Nov 15, 2020",3.4,1574,2020-11-15
3658,Sold,VonMises,0x3e17fa,"2.99Ξ ($1,034)","Sep 24, 2020",2.99,1034,2020-09-24
3658,Sold,Pranksy,0xaf5e63,0.85Ξ ($183),"Apr 29, 2020",0.85,183,2020-04-29
3658,Sold,0x00d7c9,Pranksy,0.40Ξ ($118),"Jun 21, 2019",0.4,118,2019-06-21
3659,Sold,Hemba,Kenney,0.13Ξ ($128),"Jan 23, 2018",0.13,128,2018-01-23
3660,Sold,Cyborg,0x7f3560,0.25Ξ ($24),"Dec 17, 2018",0.25,24,2018-12-17
3661,Sold,TokenAng…,0x9ff4ea,"60Ξ ($129,028)","Apr 11, 2021",60,129028,2021-04-11
3661,Sold,0x5330be,TokenAng…,"36Ξ ($71,682)","Feb 20, 2021",36,71682,2021-02-20
3661,Sold,zonted,0x5330be,"25Ξ ($45,215)","Feb 14, 2021",25,45215,2021-02-14
3661,Sold,0x052564,zonted,"11Ξ ($4,162)","Sep 15, 2020",11,4162,2020-09-15
3662,Sold,0xca1be8,0x661c12,"25Ξ ($38,275)","Feb 23, 2021",25,38275,2021-02-23
3662,Sold,Hemba,0x9aa6eb,0.10Ξ ($86),"Mar 02, 2018",0.1,86,2018-03-02
3663,Sold,Dude_Nak…,Tschuuul…,0.90Ξ ($242),"Feb 13, 2020",0.9,242,2020-02-13
3663,Sold,0x58164b,Dude_Nak…,0.06Ξ ($45),"May 07, 2018",0.06,45,2018-05-07
3663,Sold,Hemba,0x58164b,0.37Ξ ($84),"Jul 20, 2017",0.37,84,2017-07-20
3664,Sold,Pranksy,Coldie,1Ξ ($147),"Jan 11, 2020",1,147,2020-01-11
3664,Sold,0x00d7c9,Pranksy,0.40Ξ ($118),"Jun 21, 2019",0.4,118,2019-06-21
3665,Sold,0x1a96af,metapurs…,0.99Ξ ($368),"Sep 10, 2020",0.99,368,2020-09-10
3665,Sold,0x677b43,0xe45df5,0.77Ξ ($189),"Jul 08, 2017",0.77,189,2017-07-08
3665,Sold,Cyborg,0x677b43,0.30Ξ ($74),"Jul 08, 2017",0.3,74,2017-07-08
3666,Sold,0xded2cb,ddaavvee,"5Ξ ($1,729)","Sep 24, 2020",5,1729,2020-09-24
3667,Sold,Hemba,Kenney,0.09Ξ ($95),"Jan 16, 2018",0.09,95,2018-01-16
3668,Sold,Pranksy,0xcd2c66,1Ξ ($234),"Jun 17, 2020",1,234,2020-06-17
3668,Sold,0x00d7c9,Pranksy,0.40Ξ ($118),"Jun 21, 2019",0.4,118,2019-06-21
3669,Sold,0x5aaeb9,gaus,"48Ξ ($17,524)","Sep 28, 2020",48,17524,2020-09-28
3669,Sold,Carlini8,0x5aaeb9,"50Ξ ($17,362)","Sep 25, 2020",50,17362,2020-09-25
3669,Sold,VonMises,Carlini8,"40Ξ ($13,626)","Sep 25, 2020",40,13626,2020-09-25
3669,Sold,0x4960c4…,VonMises,"13Ξ ($2,728)","May 23, 2020",13,2728,2020-05-23
3669,Sold,0x8ba3e2,0x4960c4…,0.20Ξ ($58),"Oct 04, 2017",0.2,58,2017-10-04
3670,Sold,0x927635,0xec4b06,"3Ξ ($1,066)","Sep 26, 2020",3,1066,2020-09-26
3670,Sold,Michel_M…,0x927635,2.39Ξ ($821),"Sep 24, 2020",2.39,821,2020-09-24
3670,Sold,Pranksy,Michel_M…,2.19Ξ ($736),"Sep 24, 2020",2.19,736,2020-09-24
3670,Sold,Hemba,Pranksy,1.80Ξ ($613),"Sep 22, 2020",1.8,613,2020-09-22
3671,Sold,0xf99f1b,0x3734c5,"22Ξ ($45,405)","Apr 08, 2021",22,45405,2021-04-08
3671,Sold,0xec46dd,0xf99f1b,"16.98Ξ ($31,243)","Mar 31, 2021",16.98,31243,2021-03-31
3671,Sold,TheNat,0xec46dd,"9.50Ξ ($16,241)","Feb 15, 2021",9.5,16241,2021-02-15
3671,Sold,0xbfa319,TheNat,"5.73Ξ ($2,083)","Sep 28, 2020",5.73,2083,2020-09-28
3671,Sold,Pranksy,0xbfa319,0.65Ξ ($176),"Feb 16, 2020",0.65,176,2020-02-16
3671,Sold,0x00d7c9,Pranksy,0.40Ξ ($118),"Jun 21, 2019",0.4,118,2019-06-21
3672,Sold,0x231707,1355393,"30Ξ ($57,755)","Feb 18, 2021",30,57755,2021-02-18
3674,Sold,55241,2187245,0.10Ξ ($51),"May 28, 2018",0.1,51,2018-05-28
3675,Sold,pixelpet…,Shrugs,0.18Ξ ($245),"Jan 14, 2018",0.18,245,2018-01-14
3675,Sold,Hemba,pixelpet…,0.13Ξ ($123),"Jan 04, 2018",0.13,123,2018-01-04
3676,Sold,0xa4fb10,0xab61cc,"22.50Ξ ($48,385)","Apr 11, 2021",22.5,48385,2021-04-11
3676,Sold,Pranksy,0x11df18,"3.49Ξ ($1,190)","Sep 25, 2020",3.49,1190,2020-09-25
3676,Sold,0x5aaeb9,Pranksy,2.29Ξ ($792),"Sep 24, 2020",2.29,792,2020-09-24
3676,Sold,Pranksy,0x5aaeb9,2.19Ξ ($757),"Sep 24, 2020",2.19,757,2020-09-24
3676,Sold,Hemba,Pranksy,1.80Ξ ($613),"Sep 22, 2020",1.8,613,2020-09-22
3677,Sold,TokenAng…,0xcfd9cc,"50Ξ ($80,486)","Mar 03, 2021",50,80486,2021-03-03
3677,Sold,GoWest23,TokenAng…,2.75Ξ ($667),"Jul 22, 2020",2.75,667,2020-07-22
3677,Sold,0x7e2d1c,GoWest23,0.80Ξ ($135),"May 07, 2019",0.8,135,2019-05-07
3677,Sold,Punkofth…,0x30ce52,0.50Ξ ($134),"Jul 04, 2017",0.5,134,2017-07-04
3678,Sold,Hemba,0x592a51,0.12Ξ ($87),"Dec 13, 2017",0.12,87,2017-12-13
3680,Sold,0x422fac,0x050a3b,"20Ξ ($39,076)","Feb 21, 2021",20,39076,2021-02-21
3680,Sold,Michel_M…,0xe5e771,2.75Ξ ($940),"Sep 23, 2020",2.75,940,2020-09-23
3680,Sold,Sylveste…,Michel_M…,1.99Ξ ($759),"Sep 20, 2020",1.99,759,2020-09-20
3680,Sold,DANNY,Sylveste…,1.50Ξ ($555),"Sep 11, 2020",1.5,555,2020-09-11
3680,Sold,Hemba,DANNY,1.10Ξ ($222),"May 14, 2020",1.1,222,2020-05-14
3681,Sold,0x67b404,lemondro…,"5.50Ξ ($1,929)","Oct 03, 2020",5.5,1929,2020-10-03
3681,Sold,0x91d6e2,0x67b404,1.10Ξ ($267),"Jun 23, 2020",1.1,267,2020-06-23
3681,Sold,Hemba,0x91d6e2,0.50Ξ ($117),"May 18, 2019",0.5,117,2019-05-18
3682,Sold,0xab231a,957165,"45Ξ ($94,664)","Apr 05, 2021",45,94664,2021-04-05
3682,Sold,0xd8e806,11215642,0.20Ξ ($91),"Dec 05, 2017",0.2,91,2017-12-05
3683,Sold,0xfc2a61,0xbcf489,"20Ξ ($36,674)","Mar 11, 2021",20,36674,2021-03-11
3683,Sold,0x39bdec,0xdac01f,"5.50Ξ ($9,450)","Feb 08, 2021",5.5,9450,2021-02-08
3683,Sold,0x033ee7,0x39bdec,"4.33Ξ ($5,531)","Jan 27, 2021",4.33,5531,2021-01-27
3683,Sold,0xe4c479,0x033ee7,"2.90Ξ ($1,031)","Sep 26, 2020",2.9,1031,2020-09-26
3683,Sold,Hemba,0xe4c479,"3Ξ ($1,051)","Sep 25, 2020",3,1051,2020-09-25
3684,Sold,0x052564,zonted,"49Ξ ($18,772)","Sep 12, 2020",49,18772,2020-09-12
3685,Sold,0x00d7c9,sov,0.10Ξ ($29),"Oct 28, 2017",0.1,29,2017-10-28
3686,Sold,16451452,14215174,0.60Ξ ($130),"Jul 21, 2017",0.6,130,2017-07-21
3693,Sold,8563118,144231,"26Ξ ($45,660)","Mar 13, 2021",26,45660,2021-03-13
3693,Sold,14336031,8563118,"6.50Ξ ($11,198)","Feb 11, 2021",6.5,11198,2021-02-11
3693,Sold,4458632,14336031,"5.29Ξ ($9,089)","Feb 08, 2021",5.29,9089,2021-02-08
3693,Sold,7434510,4458632,0.10Ξ ($139),"Jan 13, 2018",0.1,139,2018-01-13
3695,Sold,iPhone,0x4de20e,"10Ξ ($18,215)","Feb 14, 2021",10,18215,2021-02-14
3695,Sold,evkort,iPhone,"5.99Ξ ($2,126)","Sep 30, 2020",5.99,2126,2020-09-30
3695,Sold,GoWest23,evkort,"4.85Ξ ($1,764)","Sep 28, 2020",4.85,1764,2020-09-28
3695,Sold,Blaze310,GoWest23,0.35Ξ ($61),"May 06, 2019",0.35,61,2019-05-06
3695,Sold,Hemba,Blaze310,0.27Ξ ($23),"Dec 16, 2018",0.27,23,2018-12-16
3696,Sold,14207887,16740588,"24.99Ξ ($45,587)","Mar 19, 2021",24.99,45587,2021-03-19
3696,Sold,1700403,14207887,"24Ξ ($34,563)","Mar 01, 2021",24,34563,2021-03-01
3697,Sold,0xe03559,11446499,"65Ξ ($102,341)","Mar 02, 2021",65,102341,2021-03-02
3699,Sold,0x4a30cb,0x6611fe,"30Ξ ($56,336)","Feb 22, 2021",30,56336,2021-02-22
3699,Sold,SenecaEt…,0x4a30cb,"8.50Ξ ($11,207)","Jan 24, 2021",8.5,11207,2021-01-24
3699,Sold,0x3e17fa,SenecaEt…,"4.25Ξ ($1,967)","Nov 15, 2020",4.25,1967,2020-11-15
3699,Sold,Dude_Nak…,0x3e17fa,"4.95Ξ ($1,706)","Sep 25, 2020",4.95,1706,2020-09-25
3699,Sold,0x00d7c9,Dude_Nak…,0.35Ξ ($61),"May 06, 2019",0.35,61,2019-05-06
3700,Sold,Michel_M…,trill,"12.50Ξ ($4,730)","Oct 20, 2020",12.5,4730,2020-10-20
3700,Sold,0xa3cb30,Michel_M…,"8.50Ξ ($2,898)","Oct 07, 2020",8.5,2898,2020-10-07
3702,Sold,0xa3cb30,14548427,"33.50Ξ ($60,187)","Mar 18, 2021",33.5,60187,2021-03-18
3704,Sold,ArtBlock…,DANNY,"9.99Ξ ($3,826)","Aug 25, 2020",9.99,3826,2020-08-25
3704,Sold,shilpixe…,ArtBlock…,3Ξ ($644),"May 08, 2020",3,644,2020-05-08
3705,Sold,ross_VRO…,0xf40b3d,"36Ξ ($12,752)","Sep 26, 2020",36,12752,2020-09-26
3705,Sold,0x0601d0,ross_VRO…,"8Ξ ($3,065)","Sep 12, 2020",8,3065,2020-09-12
3705,Sold,shilpixe…,0x7e5280,0.75Ξ ($196),"May 19, 2019",0.75,196,2019-05-19
3706,Sold,shilpixe…,Novo311,"5Ξ ($1,054)","May 23, 2020",5,1054,2020-05-23
3707,Sold,TokenAng…,0x4e0030,"35Ξ ($62,333)","Feb 16, 2021",35,62333,2021-02-16
3707,Sold,0x052564,TokenAng…,"15Ξ ($3,188)","May 28, 2020",15,3188,2020-05-28
3709,Sold,0x0503ed,0x44d93e,"28Ξ ($50,106)","Mar 12, 2021",28,50106,2021-03-12
3709,Sold,shilpixe…,0x0503ed,"18Ξ ($34,220)","Feb 18, 2021",18,34220,2021-02-18
3710,Sold,784659,45688,0.30Ξ ($83),"Jul 03, 2017",0.3,83,2017-07-03
3711,Sold,0x087173,devanh,"6Ξ ($2,570)","Nov 07, 2020",6,2570,2020-11-07
3711,Sold,0x63d325,0x087173,"4Ξ ($1,834)","Nov 07, 2020",4,1834,2020-11-07
3711,Sold,TweetyPi…,0x42306d,1Ξ ($230),"Feb 28, 2020",1,230,2020-02-28
3711,Sold,0xe45df5,TweetyPi…,1.40Ξ ($229),"Jan 15, 2020",1.4,229,2020-01-15
3712,Sold,0x0bf913,45688,0.99Ξ ($204),"Jul 10, 2017",0.99,204,2017-07-10
3712,Sold,0x00d7c9,784659,0.28Ξ ($58),"Jul 10, 2017",0.28,58,2017-07-10
3715,Sold,ross_VRO…,0x92ed97,"19.99Ξ ($39,317)","Feb 19, 2021",19.99,39317,2021-02-19
3715,Sold,Pranksy,ross_VRO…,1.49Ξ ($300),"May 22, 2020",1.49,300,2020-05-22
3715,Sold,0x00d7c9,Pranksy,0.40Ξ ($118),"Jun 21, 2019",0.4,118,2019-06-21
3718,Sold,Pranksy,Tschuuul…,0.79Ξ ($158),"May 14, 2020",0.79,158,2020-05-14
3718,Sold,0x00d7c9,Pranksy,0.40Ξ ($118),"Jun 21, 2019",0.4,118,2019-06-21
3720,Sold,0xa3cb30,3908924,"55Ξ ($103,144)","Mar 14, 2021",55,103144,2021-03-14
3721,Sold,11976269,7862035,0.09Ξ ($42),"Nov 24, 2017",0.09,42,2017-11-24
3722,Sold,iPhone,0x206dae,"8.50Ξ ($15,344)","Feb 13, 2021",8.5,15344,2021-02-13
3722,Sold,0x087173,iPhone,"5.88Ξ ($2,087)","Sep 30, 2020",5.88,2087,2020-09-30
3722,Sold,_etherea…,0x087173,"3Ξ ($1,017)","Sep 23, 2020",3,1017,2020-09-23
3722,Sold,Decentra…,_etherea…,0.90Ξ ($236),"Feb 20, 2020",0.9,236,2020-02-20
3722,Sold,Pranksy,0x9cd85c,1Ξ ($138),"Jan 05, 2020",1,138,2020-01-05
3722,Sold,0x00d7c9,Pranksy,0.40Ξ ($118),"Jun 21, 2019",0.4,118,2019-06-21
3728,Sold,evantan.…,0xcdd84c,"14.99Ξ ($29,790)","Feb 20, 2021",14.99,29790,2021-02-20
3728,Sold,ross_VRO…,evantan.…,"9.99Ξ ($17,508)","Feb 17, 2021",9.99,17508,2021-02-17
3728,Sold,Goop,ross_VRO…,0.54Ξ ($77),"Jan 07, 2020",0.54,77,2020-01-07
3728,Sold,Pranksy,Goop,0.52Ξ ($75),"Jan 07, 2020",0.52,75,2020-01-07
3728,Sold,0x00d7c9,Pranksy,0.40Ξ ($118),"Jun 21, 2019",0.4,118,2019-06-21
3729,Sold,Hemba,Snowfro,0.33Ξ ($53),"Feb 23, 2019",0.33,53,2019-02-23
3730,Sold,Hemba,devboi,0.50Ξ ($155),"Jun 28, 2019",0.5,155,2019-06-28
3731,Sold,ROBODOG,moonwhal…,"50Ξ ($88,433)","Mar 21, 2021",50,88433,2021-03-21
3731,Sold,Hemba,ROBODOG,0.22Ξ ($104),"Jul 25, 2018",0.22,104,2018-07-25
3732,Sold,0xc2cf71,MrTpunks…,"3.33Ξ ($1,152)","Sep 24, 2020",3.33,1152,2020-09-24
3732,Sold,Pixls,0xc2cf71,0.60Ξ ($85),"Mar 16, 2019",0.6,85,2019-03-16
3732,Sold,0xfadd89,Pixls,0.30Ξ ($43),"Mar 16, 2019",0.3,43,2019-03-16
3732,Sold,0x00d7c9,0xfadd89,0.05Ξ ($25),"Jun 12, 2018",0.05,25,2018-06-12
3733,Sold,Hemba,Kenney,0.15Ξ ($57),"Apr 04, 2018",0.15,57,2018-04-04
3734,Sold,Hemba,0x9e1e40,0.15Ξ ($104),"Feb 05, 2018",0.15,104,2018-02-05
3736,Sold,14900612,0x62bdc6,"19.99Ξ ($42,927)","Apr 12, 2021",19.99,42927,2021-04-12
3736,Sold,6689278,0x9c355c,"7.75Ξ ($14,288)","Feb 14, 2021",7.75,14288,2021-02-14
3737,Sold,CPyrc,0x0fc3c1,"9.37Ξ ($16,524)","Feb 15, 2021",9.37,16524,2021-02-15
3737,Sold,heeee.et…,CPyrc,"7.99Ξ ($14,451)","Feb 14, 2021",7.99,14451,2021-02-14
3737,Sold,0x6611fe,heeee.et…,"5.90Ξ ($11,060)","Feb 13, 2021",5.9,11060,2021-02-13
3738,Sold,Hemba,0x28784d,0.38Ξ ($483),"Jan 09, 2018",0.38,483,2018-01-09
3741,Sold,5966219,9557730,0.85Ξ ($127),"Feb 22, 2019",0.85,127,2019-02-22
3742,Sold,10734384,1633948,"20.50Ξ ($37,793)","Mar 30, 2021",20.5,37793,2021-03-30
3743,Sold,Hemba,0x96b48f,0.31Ξ ($121),"Sep 01, 2017",0.31,121,2017-09-01
3744,Sold,Bendicio…,0xaae8c5,"4.20Ξ ($5,955)","Jan 19, 2021",4.2,5955,2021-01-19
3744,Sold,Hemba,Bendicio…,0.39Ξ ($80),"Jul 29, 2017",0.39,80,2017-07-29
3745,Sold,8533182,9218204,0.13Ξ ($90),"Dec 14, 2017",0.13,90,2017-12-14
3748,Sold,0x585f98,Korniej,"6.50Ξ ($4,177)","Dec 26, 2020",6.5,4177,2020-12-26
3750,Sold,0x00d7c9,0xdbed69…,0.75Ξ ($162),"Aug 11, 2019",0.75,162,2019-08-11
3751,Sold,Hemba,0x27c79a,0.50Ξ ($72),"Jan 07, 2020",0.5,72,2020-01-07
3752,Sold,PabloFM,Kataster…,0.36Ξ ($54),"Dec 08, 2019",0.36,54,2019-12-08
3752,Sold,Cyborg,PabloFM,0.23Ξ ($44),"Oct 11, 2018",0.23,44,2018-10-11
3753,Sold,Hemba,0x27c79a,0.50Ξ ($72),"Jan 07, 2020",0.5,72,2020-01-07
3754,Sold,0x4b9af5,OpenNFT,1.50Ξ ($302),"May 27, 2020",1.5,302,2020-05-27
3754,Sold,davey.et…,0x4b9af5,1Ξ ($205),"May 22, 2020",1,205,2020-05-22
3754,Sold,trislit,davey.et…,0.70Ξ ($123),"Jan 19, 2020",0.7,123,2020-01-19
3754,Sold,Hemba,trislit,0.35Ξ ($48),"Mar 22, 2019",0.35,48,2019-03-22
3755,Sold,4801323,15693900,"40Ξ ($73,149)","Mar 10, 2021",40,73149,2021-03-10
3756,Sold,0x3f1724,0xc72f3a,1Ξ ($152),"Jan 07, 2019",1,152,2019-01-07
3756,Sold,Hemba,0x3f1724,0.10Ξ ($114),"Jan 08, 2018",0.1,114,2018-01-08
3757,Sold,0xbe00df,11231692,"60Ξ ($124,235)","Apr 08, 2021",60,124235,2021-04-08
3757,Sold,0xf1b658,1137337,"50Ξ ($89,259)","Feb 16, 2021",50,89259,2021-02-16
3757,Sold,0x577ebc,15840856,"25Ξ ($45,706)","Feb 12, 2021",25,45706,2021-02-12
3758,Sold,5331586,15329715,0.12Ξ ($62),"Mar 24, 2018",0.12,62,2018-03-24
3759,Sold,Slider92,0x9fd86d,"3.10Ξ ($1,887)","Dec 22, 2020",3.1,1887,2020-12-22
3759,Sold,cryptosa…,Slider92,"2.69Ξ ($1,586)","Nov 25, 2020",2.69,1586,2020-11-25
3759,Sold,0x5b098b,cryptosa…,2.15Ξ ($816),"Sep 18, 2020",2.15,816,2020-09-18
3759,Sold,0x6fe0dd,0x5b098b,0.19Ξ ($25),"Nov 20, 2018",0.19,25,2018-11-20
3759,Sold,Hemba,0x6fe0dd,0.09Ξ ($82),"Feb 18, 2018",0.09,82,2018-02-18
3760,Sold,Pranksy,0xa9c206,0.55Ξ ($96),"Sep 27, 2019",0.55,96,2019-09-27
3760,Sold,Zieg,Pranksy,0.49Ξ ($132),"Jul 11, 2019",0.49,132,2019-07-11
3760,Sold,0x8234be,Zieg,0.30Ξ ($50),"Apr 05, 2019",0.3,50,2019-04-05
3761,Sold,Hemba,0x71546e,0.35Ξ ($48),"Feb 28, 2019",0.35,48,2019-02-28
3762,Sold,Goop,0xb87461,0.37Ξ ($55),"Dec 09, 2019",0.37,55,2019-12-09
3762,Sold,renaissa…,Goop,0.34Ξ ($51),"Dec 08, 2019",0.34,51,2019-12-08
3762,Sold,0x0553de,renaissa…,0.43Ξ ($109),"May 30, 2019",0.43,109,2019-05-30
3762,Sold,Hemba,0x0553de,0.33Ξ ($39),"Jan 20, 2019",0.33,39,2019-01-20
3763,Sold,MadMax,0xc05488,"72Ξ ($130,892)","Mar 12, 2021",72,130892,2021-03-12
3763,Sold,0x577ebc,MadMax,"29Ξ ($52,700)","Feb 14, 2021",29,52700,2021-02-14
3766,Sold,0x166149,0x60c7d0,"5Ξ ($1,753)","Sep 26, 2020",5,1753,2020-09-26
3766,Sold,Alex3422,0x166149,1.99Ξ ($477),"Jul 09, 2020",1.99,477,2020-07-09
3766,Sold,0xbfa319,Alex3422,0.85Ξ ($123),"Jan 13, 2020",0.85,123,2020-01-13
3766,Sold,Hemba,0xbfa319,0.16Ξ ($47),"Sep 01, 2018",0.16,47,2018-09-01
3767,Sold,pixelpet…,0x9e199d,0.19Ξ ($37),"Oct 12, 2018",0.19,37,2018-10-12
3767,Sold,0x00d7c9,pixelpet…,0.10Ξ ($94),"Feb 16, 2018",0.1,94,2018-02-16
3768,Sold,0xcbdde8,🖕🖕🖕.e…,"5Ξ ($5,598)","Jan 14, 2021",5,5598,2021-01-14
3768,Sold,NeonNFT,KittyGr_…,"4.25Ξ ($1,493)","Oct 08, 2020",4.25,1493,2020-10-08
3768,Sold,6373D,NeonNFT,"4.25Ξ ($1,491)","Oct 08, 2020",4.25,1491,2020-10-08
3768,Sold,Lmao,6373D,"3.52Ξ ($1,236)","Oct 08, 2020",3.52,1236,2020-10-08
3768,Sold,0xa3cb30,Lmao,"5.50Ξ ($1,941)","Oct 05, 2020",5.5,1941,2020-10-05
3769,Sold,wookie.e…,0xdd23ab,"24Ξ ($37,857)","Mar 04, 2021",24,37857,2021-03-04
3769,Sold,0xc1e42f,0x568cf5,"5.79Ξ ($2,048)","Sep 29, 2020",5.79,2048,2020-09-29
3769,Sold,GoWest23,0xc1e42f,"5.25Ξ ($1,900)","Sep 28, 2020",5.25,1900,2020-09-28
3769,Sold,Hemba,GoWest23,0.50Ξ ($87),"May 06, 2019",0.5,87,2019-05-06
3770,Sold,10734384,14424672,"29.50Ξ ($52,464)","Mar 15, 2021",29.5,52464,2021-03-15
3771,Sold,0xddfdcb,0xf2af34,"21.49Ξ ($39,397)","Mar 20, 2021",21.49,39397,2021-03-20
3771,Sold,iPhone,0xddfdcb,"10Ξ ($18,249)","Feb 14, 2021",10,18249,2021-02-14
3771,Sold,Dude_Nak…,iPhone,"5.98Ξ ($2,123)","Sep 30, 2020",5.98,2123,2020-09-30
3771,Sold,Thing,Dude_Nak…,"5.39Ξ ($1,951)","Sep 28, 2020",5.39,1951,2020-09-28
3771,Sold,CPyrc,Thing,2.49Ξ ($862),"Sep 24, 2020",2.49,862,2020-09-24
3771,Sold,justintr…,CPyrc,1.88Ξ ($687),"Sep 15, 2020",1.88,687,2020-09-15
3771,Sold,Pranksy,0x0134d3,0.99Ξ ($237),"Jul 11, 2020",0.99,237,2020-07-11
3771,Sold,natealex,Pranksy,1Ξ ($205),"May 22, 2020",1,205,2020-05-22
3771,Sold,Hemba,natealex,0.65Ξ ($130),"May 14, 2020",0.65,130,2020-05-14
3774,Sold,0xbfa319,ModestaJ,"4.59Ξ ($1,643)","Sep 28, 2020",4.59,1643,2020-09-28
3774,Sold,Cyborg,0xbfa319,0.42Ξ ($78),"Nov 02, 2019",0.42,78,2019-11-02
3774,Sold,0xd8e806,Cyborg,0.35Ξ ($68),"Jul 19, 2017",0.35,68,2017-07-19
3774,Sold,Hemba,0xd8e806,0.09Ξ ($17),"Jul 11, 2017",0.09,17,2017-07-11
3776,Sold,0xe754d1,0x568cf5,"5.75Ξ ($2,058)","Sep 29, 2020",5.75,2058,2020-09-29
3776,Sold,cryptoke…,0xe754d1,"3.10Ξ ($1,100)","Sep 27, 2020",3.1,1100,2020-09-27
3776,Sold,0x3ba9cd,cryptoke…,"2.85Ξ ($1,012)","Sep 25, 2020",2.85,1012,2020-09-25
3776,Sold,Carlini8,0x3ba9cd,2.50Ξ ($869),"Sep 24, 2020",2.5,869,2020-09-24
3776,Sold,Pranksy,Carlini8,1.50Ξ ($564),"Sep 14, 2020",1.5,564,2020-09-14
3776,Sold,Hemba,Pranksy,1.40Ξ ($514),"Sep 11, 2020",1.4,514,2020-09-11
3778,Sold,Hemba,0x0452b1,0.63Ξ ($83),"Mar 21, 2020",0.63,83,2020-03-21
3779,Sold,Hemba,RobertHo…,1.05Ξ ($398),"Aug 12, 2020",1.05,398,2020-08-12
3780,Sold,0xb4a8bf,0xcc47fc,"22.50Ξ ($49,167)","Apr 10, 2021",22.5,49167,2021-04-10
3780,Sold,0x3e17fa,0xe50c4f,"9Ξ ($15,863)","Feb 15, 2021",9,15863,2021-02-15
3780,Sold,0xb40dac,0x3e17fa,"3.45Ξ ($1,214)","Sep 27, 2020",3.45,1214,2020-09-27
3780,Sold,Hemba,0xb40dac,"3Ξ ($1,054)","Sep 24, 2020",3,1054,2020-09-24
3782,Sold,0x5fd36a,0xb34519,"19.50Ξ ($41,460)","Apr 06, 2021",19.5,41460,2021-04-06
3782,Sold,Blacksta…,boatyboa…,"3.90Ξ ($1,401)","Sep 28, 2020",3.9,1401,2020-09-28
3782,Sold,CPyrc,Blacksta…,"3.17Ξ ($1,113)","Sep 27, 2020",3.17,1113,2020-09-27
3782,Sold,0x9ce03d,CPyrc,"3Ξ ($1,056)","Sep 27, 2020",3,1056,2020-09-27
3782,Sold,0x3ba9cd,0x9ce03d,"3.12Ξ ($1,097)","Sep 27, 2020",3.12,1097,2020-09-27
3782,Sold,Carlini8,0x3ba9cd,2.50Ξ ($869),"Sep 24, 2020",2.5,869,2020-09-24
3782,Sold,Pranksy,Carlini8,1.50Ξ ($564),"Sep 14, 2020",1.5,564,2020-09-14
3782,Sold,Hemba,Pranksy,1.40Ξ ($514),"Sep 11, 2020",1.4,514,2020-09-11
3783,Sold,0x5fd36a,0x0e6167,"15Ξ ($29,594)","Feb 21, 2021",15,29594,2021-02-21
3783,Sold,kriptoga…,0x5fd36a,"12.50Ξ ($23,965)","Feb 20, 2021",12.5,23965,2021-02-20
3783,Sold,Hemba,kriptoga…,0.14Ξ ($27),"Oct 26, 2018",0.14,27,2018-10-26
3784,Sold,0x13816f,sumrtime…,"17.50Ξ ($30,916)","Feb 16, 2021",17.5,30916,2021-02-16
3784,Sold,GoWest23,0x13816f,"8.02Ξ ($2,925)","Sep 28, 2020",8.02,2925,2020-09-28
3784,Sold,0x00d7c9,GoWest23,0.70Ξ ($122),"May 06, 2019",0.7,122,2019-05-06
3787,Sold,GoWest23,j1mmy,"4.25Ξ ($1,471)","Sep 24, 2020",4.25,1471,2020-09-24
3787,Sold,Pranksy,GoWest23,0.75Ξ ($104),"Jan 05, 2020",0.75,104,2020-01-05
3787,Sold,0x00d7c9,Pranksy,0.25Ξ ($45),"Sep 02, 2019",0.25,45,2019-09-02
3788,Sold,12758076,5828999,0.08Ξ ($55),"Dec 15, 2017",0.08,55,2017-12-15
3790,Sold,0xef764b…,0xea1218,"21.96Ξ ($39,688)","Mar 12, 2021",21.96,39688,2021-03-12
3790,Sold,0xba89f0,0xef764b…,"19.99Ξ ($32,849)","Mar 07, 2021",19.99,32849,2021-03-07
3790,Sold,0x13816f,0xba89f0,"21.88Ξ ($41,966)","Feb 22, 2021",21.88,41966,2021-02-22
3790,Sold,0x00d7c9,KittyGr_…,0.05Ξ ($30),"Jun 08, 2018",0.05,30,2018-06-08
3793,Sold,TokenAng…,0xb1adce,"8.80Ξ ($13,712)","Feb 03, 2021",8.8,13712,2021-02-03
3793,Sold,0x20e386,TokenAng…,"4Ξ ($1,548)","Sep 13, 2020",4,1548,2020-09-13
3795,Sold,755965,11844417,"54Ξ ($92,043)","Mar 23, 2021",54,92043,2021-03-23
3795,Sold,12586027,6689278,0.90Ξ ($217),"Jul 07, 2017",0.9,217,2017-07-07
3796,Sold,7434510,2652949,0.08Ξ ($109),"Jan 14, 2018",0.08,109,2018-01-14
3797,Sold,0x0503ed,0x4e0030,"6.80Ξ ($9,549)","Jan 25, 2021",6.8,9549,2021-01-25
3797,Sold,2pac,0x0503ed,"4Ξ ($4,815)","Jan 18, 2021",4,4815,2021-01-18
3797,Sold,0x4960c4…,2pac,"5.95Ξ ($3,738)","Dec 26, 2020",5.95,3738,2020-12-26
3797,Sold,0x8234be,0x4960c4…,0.10Ξ ($38),"Apr 02, 2018",0.1,38,2018-04-02
3798,Sold,2299655,16525921,"21Ξ ($41,030)","Feb 21, 2021",21,41030,2021-02-21
3799,Sold,Cryptokk…,Kataster…,1.50Ξ ($338),"Feb 09, 2020",1.5,338,2020-02-09
3799,Sold,Zieg,Cryptokk…,0.50Ξ ($75),"Feb 20, 2019",0.5,75,2019-02-20
3799,Sold,0x00d7c9,Zieg,0.10Ξ ($79),"Dec 21, 2017",0.1,79,2017-12-21
3800,Sold,scalynel…,0x3e17fa,"25Ξ ($45,580)","Feb 15, 2021",25,45580,2021-02-15
3800,Sold,Pranksy,0x7e1197,"9Ξ ($9,499)","Jan 12, 2021",9,9499,2021-01-12
3800,Sold,0xc69ae4,2pac,"19Ξ ($12,029)","Dec 25, 2020",19,12029,2020-12-25
3800,Sold,shilpixe…,0xc69ae4,"7Ξ ($2,636)","Sep 14, 2020",7,2636,2020-09-14
3802,Sold,2233870,45688,0.31Ξ ($69),"Jul 18, 2017",0.31,69,2017-07-18
3803,Sold,0x470e9b,snowfro,1Ξ ($158),"Apr 28, 2019",1,158,2019-04-28
3804,Sold,10850289,10684166,"24.51Ξ ($43,851)","Mar 11, 2021",24.51,43851,2021-03-11
3804,Sold,4774681,10850289,"22.90Ξ ($42,517)","Feb 22, 2021",22.9,42517,2021-02-22
3805,Sold,55241,snax,0.10Ξ ($115),"Jan 20, 2018",0.1,115,2018-01-20
3806,Sold,Jiho,0xcf6165,"4Ξ ($2,513)","Dec 26, 2020",4,2513,2020-12-26
3806,Sold,ross_VRO…,Jiho,0.59Ξ ($108),"Feb 01, 2020",0.59,108,2020-02-01
3806,Sold,0xe45df5,ross_VRO…,0.55Ξ ($79),"Jan 07, 2020",0.55,79,2020-01-07
3808,Sold,0x4d0730,0x36fbd8,"39Ξ ($57,336)","Mar 02, 2021",39,57336,2021-03-02
3808,Sold,Hemba,0x4d0730,0.15Ξ ($101),"Dec 24, 2017",0.15,101,2017-12-24
3812,Sold,EliteCat…,0xad0338,"26.89Ξ ($41,163)","Mar 06, 2021",26.89,41163,2021-03-06
3812,Sold,0xe45df5,GoWest23,1Ξ ($246),"May 23, 2019",1,246,2019-05-23
3816,Sold,0x6f4a2d,16740588,"95Ξ ($196,748)","Apr 09, 2021",95,196748,2021-04-09
3818,Sold,CPyrc,ddaavvee,"6.99Ξ ($2,522)","Sep 27, 2020",6.99,2522,2020-09-27
3818,Sold,0x20e386,CPyrc,1.20Ξ ($465),"Sep 13, 2020",1.2,465,2020-09-13
3819,Sold,0xe8b153,14047603,"17.40Ξ ($33,685)","Feb 21, 2021",17.4,33685,2021-02-21
3819,Sold,0x3d826e,15249747,"14Ξ ($26,789)","Feb 18, 2021",14,26789,2021-02-18
3819,Sold,0x8234be,4031086,0.11Ξ ($79),"Dec 28, 2017",0.11,79,2017-12-28
3820,Sold,4656795,10362432,0.16Ξ ($168),"Jan 26, 2018",0.16,168,2018-01-26
3821,Sold,Hemba,0x03911f,0.14Ξ ($58),"Apr 03, 2018",0.14,58,2018-04-03
3822,Sold,8533182,8350887,0.10Ξ ($70),"Dec 13, 2017",0.1,70,2017-12-13
3823,Sold,MrTpunks,0x0601d0,"3Ξ ($1,110)","Sep 15, 2020",3,1110,2020-09-15
3823,Sold,Pranksy,0x1f8add,0.99Ξ ($190),"May 10, 2020",0.99,190,2020-05-10
3823,Sold,0xe45df5,Pranksy,0.70Ξ ($94),"Jan 04, 2020",0.7,94,2020-01-04
3824,Sold,0x84c920,8009633,"42Ξ ($66,825)","Mar 03, 2021",42,66825,2021-03-03
3824,Sold,0x577ebc,8702240,"44Ξ ($59,218)","Feb 28, 2021",44,59218,2021-02-28
3825,Sold,0x00d7c9,GtC,0.25Ξ ($45),"Sep 03, 2019",0.25,45,2019-09-03
3826,Sold,0x13816f,pelvis.e…,"8.90Ξ ($16,684)","Feb 13, 2021",8.9,16684,2021-02-13
3826,Sold,j1mmy,0x13816f,"5.90Ξ ($2,132)","Oct 01, 2020",5.9,2132,2020-10-01
3826,Sold,Pranksy,j1mmy,"3.88Ξ ($1,343)","Sep 24, 2020",3.88,1343,2020-09-24
3826,Sold,Dude_Nak…,evkort,"2.95Ξ ($1,111)","Sep 15, 2020",2.95,1111,2020-09-15
3826,Sold,0x00d7c9,Dude_Nak…,0.35Ξ ($61),"May 06, 2019",0.35,61,2019-05-06
3827,Sold,Hemba,Kenney,0.15Ξ ($57),"Apr 04, 2018",0.15,57,2018-04-04
3828,Sold,Hemba,PB,0.35Ξ ($48),"Mar 24, 2019",0.35,48,2019-03-24
3829,Sold,0x42bfa9,sov,0.40Ξ ($79),"Jul 30, 2017",0.4,79,2017-07-30
3829,Sold,Cyborg,0x42bfa9,0.30Ξ ($84),"Jun 30, 2017",0.3,84,2017-06-30
3830,Sold,1742511,Catdog,0.54Ξ ($104),"Apr 27, 2020",0.54,104,2020-04-27
3831,Sold,0xf1b658,taneleer…,"70Ξ ($92,200)","Jan 24, 2021",70,92200,2021-01-24
3831,Sold,2pac,0xf1b658,"60Ξ ($71,950)","Jan 18, 2021",60,71950,2021-01-18
3831,Sold,Pranksy,2pac,"99.99Ξ ($62,693)","Dec 25, 2020",99.99,62693,2020-12-25
3831,Sold,GoWest23,Pranksy,"65Ξ ($22,491)","Sep 24, 2020",65,22491,2020-09-24
3831,Sold,0xf5099e,GoWest23,"9.95Ξ ($1,803)","Sep 12, 2019",9.95,1803,2019-09-12
3831,Sold,0x5462de,0xa0a59c,1Ξ ($269),"Jul 04, 2017",1,269,2017-07-04
3832,Sold,jmg,Kataster…,0.88Ξ ($144),"Jan 16, 2020",0.88,144,2020-01-16
3832,Sold,0x00d7c9,jmg,0.45Ξ ($74),"Apr 13, 2019",0.45,74,2019-04-13
3833,Sold,0x8234be,0xa80be8…,0.10Ξ ($67),"May 01, 2018",0.1,67,2018-05-01
3834,Sold,0xccc003,0x5fd36a,"22Ξ ($39,013)","Mar 15, 2021",22,39013,2021-03-15
3834,Sold,0x577ebc,0xccc003,"19.50Ξ ($34,038)","Mar 08, 2021",19.5,34038,2021-03-08
3836,Sold,5734076,12876451,"24Ξ ($37,266)","Mar 02, 2021",24,37266,2021-03-02
3839,Sold,Collecti…,0x299eae,"20Ξ ($39,458)","Feb 21, 2021",20,39458,2021-02-21
3839,Sold,CPyrc,Collecti…,"6.49Ξ ($2,248)","Oct 06, 2020",6.49,2248,2020-10-06
3839,Sold,LSD,CPyrc,"5Ξ ($1,756)","Oct 06, 2020",5,1756,2020-10-06
3840,Sold,Hemba,stcc33,0.38Ξ ($48),"Feb 10, 2019",0.38,48,2019-02-10
3841,Sold,0x62bdc6,cryptodu…,"79Ξ ($148,152)","Mar 14, 2021",79,148152,2021-03-14
3841,Sold,MrTpunks,0x62bdc6,"85Ξ ($156,437)","Mar 11, 2021",85,156437,2021-03-11
3841,Sold,0x470e9b,MrTpunks,4Ξ ($572),"Jan 13, 2020",4,572,2020-01-13
3844,Sold,0xe1bb6e,0x3a6cb5,"28.27Ξ ($52,500)","Mar 14, 2021",28.27,52500,2021-03-14
3844,Sold,Ambrose,0x585755,0.60Ξ ($108),"Oct 12, 2019",0.6,108,2019-10-12
3844,Sold,Hemba,Ambrose,0.46Ξ ($82),"Apr 10, 2019",0.46,82,2019-04-10
3845,Sold,0xbfa319,TJ2010,"5.82Ξ ($2,115)","Sep 28, 2020",5.82,2115,2020-09-28
3845,Sold,Dude_Nak…,0xbfa319,0.65Ξ ($176),"Feb 16, 2020",0.65,176,2020-02-16
3845,Sold,0x8234be,Dude_Nak…,0.11Ξ ($67),"Mar 14, 2018",0.11,67,2018-03-14
3846,Sold,0xffe678,0x62bdc6,"19Ξ ($39,549)","Apr 09, 2021",19,39549,2021-04-09
3846,Sold,PB,0xffe678,"19.40Ξ ($40,274)","Apr 09, 2021",19.4,40274,2021-04-09
3846,Sold,Hemba,PB,0.35Ξ ($48),"Mar 24, 2019",0.35,48,2019-03-24
3847,Sold,Hemba,PB,0.35Ξ ($48),"Mar 24, 2019",0.35,48,2019-03-24
3851,Sold,0xeb725f,0x0e6167,"17.40Ξ ($34,329)","Feb 21, 2021",17.4,34329,2021-02-21
3851,Sold,Korniej,0xeb725f,"10.99Ξ ($20,156)","Feb 17, 2021",10.99,20156,2021-02-17
3851,Sold,MrNFT,Korniej,2.22Ξ ($826),"Sep 20, 2020",2.22,826,2020-09-20
3851,Sold,Pranksy,MrNFT,1.78Ξ ($678),"Sep 20, 2020",1.78,678,2020-09-20
3851,Sold,TokenAng…,Pranksy,1.90Ξ ($716),"Sep 14, 2020",1.9,716,2020-09-14
3851,Sold,Hemba,TokenAng…,0.50Ξ ($132),"Jun 18, 2019",0.5,132,2019-06-18
3852,Sold,Hemba,Kataster…,0.95Ξ ($367),"Aug 26, 2020",0.95,367,2020-08-26
3853,Sold,0x1a4d11,0xad9f11,"22.70Ξ ($43,369)","Mar 13, 2021",22.7,43369,2021-03-13
3853,Sold,charley,0x1a4d11,"20.48Ξ ($36,488)","Mar 11, 2021",20.48,36488,2021-03-11
3853,Sold,pinkiepi…,0x865c96,"5Ξ ($3,119)","Dec 22, 2020",5,3119,2020-12-22
3853,Sold,NeonNFT,2pac,"4Ξ ($2,428)","Nov 24, 2020",4,2428,2020-11-24
3853,Sold,oref,NeonNFT,"6.20Ξ ($2,264)","Sep 28, 2020",6.2,2264,2020-09-28
3853,Sold,0x0553de,oref,0.99Ξ ($431),"Aug 16, 2020",0.99,431,2020-08-16
3853,Sold,Hemba,0x0553de,1.70Ξ ($337),"May 26, 2020",1.7,337,2020-05-26
3854,Sold,j1mmy,TokenAng…,1.25Ξ ($267),"May 19, 2020",1.25,267,2020-05-19
3854,Sold,0x00d7c9,j1mmy,0.50Ξ ($87),"May 06, 2019",0.5,87,2019-05-06
3855,Sold,SharkWha…,0x7a3960,"4.99Ξ ($1,908)","Oct 14, 2020",4.99,1908,2020-10-14
3855,Sold,Slider92,SharkWha…,"5.95Ξ ($2,077)","Oct 03, 2020",5.95,2077,2020-10-03
3855,Sold,Zieg,Slider92,"5.82Ξ ($2,070)","Sep 29, 2020",5.82,2070,2020-09-29
3855,Sold,ross_VRO…,Zieg,"3.29Ξ ($1,162)","Sep 27, 2020",3.29,1162,2020-09-27
3855,Sold,Pranksy,ross_VRO…,"2.99Ξ ($1,048)","Sep 25, 2020",2.99,1048,2020-09-25
3855,Sold,0xe754d1,Pranksy,2.30Ξ ($796),"Sep 24, 2020",2.3,796,2020-09-24
3855,Sold,Pranksy,0xe754d1,2.19Ξ ($752),"Sep 24, 2020",2.19,752,2020-09-24
3855,Sold,Hemba,Pranksy,1.80Ξ ($613),"Sep 22, 2020",1.8,613,2020-09-22
3856,Sold,Dude_Nak…,0x3e17fa,"3.79Ξ ($1,342)","Sep 26, 2020",3.79,1342,2020-09-26
3856,Sold,Carlini8,Dude_Nak…,2.50Ξ ($865),"Sep 24, 2020",2.5,865,2020-09-24
3856,Sold,natealex,Carlini8,1.55Ξ ($583),"Sep 14, 2020",1.55,583,2020-09-14
3856,Sold,Pranksy,natealex,1.25Ξ ($460),"Sep 11, 2020",1.25,460,2020-09-11
3856,Sold,Hemba,Pranksy,1Ξ ($214),"May 20, 2020",1,214,2020-05-20
3857,Sold,0x11c9a7,nftjapan,1.90Ξ ($725),"Sep 20, 2020",1.9,725,2020-09-20
3857,Sold,CryptoIn…,0x11c9a7,1.92Ξ ($714),"Sep 15, 2020",1.92,714,2020-09-15
3857,Sold,0x1a96af,CryptoIn…,0.81Ξ ($170),"May 20, 2020",0.81,170,2020-05-20
3858,Sold,0x98cfea,district…,"17Ξ ($17,214)","Jan 04, 2021",17,17214,2021-01-04
3870,Sold,Hemba,0xeb5889,0.16Ξ ($106),"Dec 15, 2017",0.16,106,2017-12-15
3878,Sold,valko.et…,0xc74ffb,"25Ξ ($44,585)","Feb 22, 2021",25,44585,2021-02-22
3878,Sold,0x13816f,valko.et…,"6.70Ξ ($11,629)","Feb 08, 2021",6.7,11629,2021-02-08
3878,Sold,CPyrc,0x13816f,"3.10Ξ ($1,096)","Sep 27, 2020",3.1,1096,2020-09-27
3878,Sold,0x3ba9cd,CPyrc,"3.05Ξ ($1,078)","Sep 27, 2020",3.05,1078,2020-09-27
3878,Sold,0x11c9a7,0x3ba9cd,2.25Ξ ($782),"Sep 24, 2020",2.25,782,2020-09-24
3878,Sold,Carlini8,0x11c9a7,2.10Ξ ($677),"Sep 23, 2020",2.1,677,2020-09-23
3878,Sold,Hemba,Carlini8,1.60Ξ ($603),"Sep 14, 2020",1.6,603,2020-09-14
3879,Sold,NeonNFT,0x_NFT,"3Ξ ($1,385)","Nov 16, 2020",3,1385,2020-11-16
3879,Sold,0x433297,0x49f065,1.36Ξ ($493),"Sep 11, 2020",1.36,493,2020-09-11
3879,Sold,0x1f8add,0x433297,1.09Ξ ($433),"Aug 03, 2020",1.09,433,2020-08-03
3879,Sold,Hemba,0x1f8add,1.05Ξ ($224),"May 20, 2020",1.05,224,2020-05-20
3880,Sold,Pranksy,gaus,2.75Ξ ($949),"Sep 25, 2020",2.75,949,2020-09-25
3880,Sold,Hemba,Pranksy,2.30Ξ ($796),"Sep 24, 2020",2.3,796,2020-09-24
3886,Sold,0xd8e806,0x459c13,0.25Ξ ($74),"Aug 08, 2017",0.25,74,2017-08-08
3886,Sold,Hemba,0xd8e806,0.09Ξ ($16),"Jul 11, 2017",0.09,16,2017-07-11
3888,Sold,0x00d7c9,CyrusOld,0.05Ξ ($29),"Jun 01, 2018",0.05,29,2018-06-01
3889,Sold,10734384,NFTinTin,"6.80Ξ ($2,374)","Oct 03, 2020",6.8,2374,2020-10-03
3891,Sold,2299655,150475,"33Ξ ($63,725)","Feb 22, 2021",33,63725,2021-02-22
3892,Sold,0x13816f,0x255076,"5.50Ξ ($1,857)","Oct 02, 2020",5.5,1857,2020-10-02
3892,Sold,Carlini8,0x13816f,"5.50Ξ ($1,963)","Sep 30, 2020",5.5,1963,2020-09-30
3892,Sold,Sylveste…,Carlini8,"5.95Ξ ($2,128)","Sep 29, 2020",5.95,2128,2020-09-29
3892,Sold,GoWest23,Sylveste…,"5.45Ξ ($1,979)","Sep 28, 2020",5.45,1979,2020-09-28
3892,Sold,0x470e9b,GoWest23,0.45Ξ ($78),"May 06, 2019",0.45,78,2019-05-06
3893,Sold,11976269,panch,0.09Ξ ($41),"Dec 05, 2017",0.09,41,2017-12-05
3894,Sold,shilpixe…,Pixls,0.40Ξ ($106),"May 16, 2019",0.4,106,2019-05-16
3896,Sold,0x0bf913,15242351,0.27Ξ ($105),"Aug 31, 2017",0.27,105,2017-08-31
3897,Sold,Flaz,0x36df21,"4.99Ξ ($1,822)","Sep 28, 2020",4.99,1822,2020-09-28
3897,Sold,0x175792,Flaz,1Ξ ($207),"May 24, 2020",1,207,2020-05-24
3897,Sold,Cyborg,0x175792,0.10Ξ ($94),"Jan 03, 2018",0.1,94,2018-01-03
3899,Sold,16033653,2710755,"17Ξ ($30,910)","Mar 10, 2021",17,30910,2021-03-10
3899,Sold,11976269,16033653,0.09Ξ ($42),"Dec 03, 2017",0.09,42,2017-12-03
3901,Sold,0xf4a775,11139369,"20Ξ ($33,827)","Mar 27, 2021",20,33827,2021-03-27
3901,Sold,0xb6be4d,16033653,0.09Ξ ($41),"Dec 05, 2017",0.09,41,2017-12-05
3903,Sold,Cyborg,juggerna…,0.28Ξ ($77),"Aug 07, 2017",0.28,77,2017-08-07
3904,Sold,5509237,4069370,"5Ξ ($1,777)","Sep 26, 2020",5,1777,2020-09-26
3905,Sold,ChrisR,0xfb60bb,0.94Ξ ($315),"Jul 31, 2020",0.94,315,2020-07-31
3905,Sold,Hemba,Pranksy,0.85Ξ ($172),"May 22, 2020",0.85,172,2020-05-22
3906,Sold,Hemba,0xa1b2c1,0.45Ξ ($94),"Sep 17, 2019",0.45,94,2019-09-17
3907,Sold,renaissa…,0x8f6b1e,"10Ξ ($18,031)","Feb 16, 2021",10,18031,2021-02-16
3907,Sold,Michel_M…,renaissa…,"5.80Ξ ($2,065)","Sep 29, 2020",5.8,2065,2020-09-29
3907,Sold,Hemba,Michel_M…,1.40Ξ ($327),"Jun 12, 2020",1.4,327,2020-06-12
3909,Sold,0x8234be,Kenney,0.20Ξ ($139),"Mar 12, 2018",0.2,139,2018-03-12
3910,Sold,6249972,3019005,"25.99Ξ ($46,499)","Mar 11, 2021",25.99,46499,2021-03-11
3913,Sold,11976269,16033653,0.09Ξ ($42),"Dec 03, 2017",0.09,42,2017-12-03
3914,Sold,0x13816f,0x4c6d87,"42Ξ ($74,893)","Feb 22, 2021",42,74893,2021-02-22
3914,Sold,0xadc229,0x13816f,"25Ξ ($48,124)","Feb 21, 2021",25,48124,2021-02-21
3914,Sold,dereklau…,0xadc229,"7Ξ ($9,573)","Jan 31, 2021",7,9573,2021-01-31
3914,Sold,EliteCat…,dereklau…,"5.49Ξ ($6,807)","Jan 24, 2021",5.49,6807,2021-01-24
3914,Sold,0x566f19,0x5b331e,"6Ξ ($6,923)","Jan 06, 2021",6,6923,2021-01-06
3914,Sold,TweetyPi…,0x50c946,"4.50Ξ ($2,461)","Nov 28, 2020",4.5,2461,2020-11-28
3914,Sold,0x624394,TweetyPi…,"3Ξ ($1,596)","Nov 22, 2020",3,1596,2020-11-22
3914,Sold,scalynel…,0x624394,"5.50Ξ ($1,903)","Sep 24, 2020",5.5,1903,2020-09-24
3914,Sold,Carlini8,scalynel…,1.70Ξ ($379),"Jun 15, 2020",1.7,379,2020-06-15
3914,Sold,0xbfa319,Carlini8,1.10Ξ ($140),"Jan 03, 2020",1.1,140,2020-01-03
3914,Sold,0x00d7c9,0xbfa319,0.10Ξ ($38),"Nov 22, 2017",0.1,38,2017-11-22
3915,Sold,Novo311,0xbff799,"20.98Ξ ($43,591)","Apr 08, 2021",20.98,43591,2021-04-08
3915,Sold,3van.eth,Novo311,"5.50Ξ ($8,896)","Feb 07, 2021",5.5,8896,2021-02-07
3915,Sold,0xf4a775,3van.eth,"5Ξ ($6,199)","Jan 24, 2021",5,6199,2021-01-24
3915,Sold,0xb6be4d,0xf4a775,0.09Ξ ($41),"Dec 05, 2017",0.09,41,2017-12-05
3920,Sold,0xf4a775,wookie.e…,"16.50Ξ ($28,116)","Mar 28, 2021",16.5,28116,2021-03-28
3920,Sold,0xb6be4d,0xf4a775,0.09Ξ ($41),"Dec 05, 2017",0.09,41,2017-12-05
3921,Sold,10734384,1633948,"19Ξ ($35,027)","Mar 30, 2021",19,35027,2021-03-30
3922,Sold,0x881ef2,0x46b4fa,"5.79Ξ ($8,766)","Feb 03, 2021",5.79,8766,2021-02-03
3922,Sold,Collin3,0x881ef2,"4.95Ξ ($3,464)","Dec 27, 2020",4.95,3464,2020-12-27
3922,Sold,chints,Collin3,"4Ξ ($2,307)","Dec 24, 2020",4,2307,2020-12-24
3922,Sold,Pixls,robers,0.34Ξ ($58),"Apr 22, 2019",0.34,58,2019-04-22
3922,Sold,0xe45df5,Pixls,0.25Ξ ($35),"Dec 30, 2018",0.25,35,2018-12-30
3923,Sold,mikedema…,0xaf5e63,0.90Ξ ($352),"Aug 23, 2020",0.9,352,2020-08-23
3923,Sold,0x470e9b,mikedema…,1Ξ ($149),"Feb 22, 2019",1,149,2019-02-22
3924,Sold,0xb166dd,0x3dca36,"6.70Ξ ($12,371)","Feb 13, 2021",6.7,12371,2021-02-13
3924,Sold,kyloren,0xb166dd,"5.20Ξ ($6,554)","Jan 27, 2021",5.2,6554,2021-01-27
3924,Sold,0x7c18fd,kyloren,"5.20Ξ ($1,836)","Sep 29, 2020",5.2,1836,2020-09-29
3924,Sold,Carlini8,0x7c18fd,"5.10Ξ ($1,854)","Sep 28, 2020",5.1,1854,2020-09-28
3924,Sold,0x0553de,Carlini8,"4.49Ξ ($1,613)","Sep 28, 2020",4.49,1613,2020-09-28
3924,Sold,ChrisR,0x0553de,"3.99Ξ ($1,427)","Sep 28, 2020",3.99,1427,2020-09-28
3924,Sold,0x1a96af,Pranksy,0.91Ξ ($184),"May 22, 2020",0.91,184,2020-05-22
3926,Sold,1742511,10011784,0.75Ξ ($151),"May 17, 2020",0.75,151,2020-05-17
3927,Sold,0xd3e2e7,0x6ed1a5,"30.67Ξ ($48,090)","Mar 02, 2021",30.67,48090,2021-03-02
3927,Sold,DojiFlip,0xd3e2e7,"26.50Ξ ($42,990)","Feb 25, 2021",26.5,42990,2021-02-25
3927,Sold,OnlyToas…,DojiFlip,"26Ξ ($48,824)","Feb 22, 2021",26,48824,2021-02-22
3927,Sold,0x13816f,OnlyToas…,"24.88Ξ ($48,611)","Feb 21, 2021",24.88,48611,2021-02-21
3927,Sold,CryptoCo…,0x13816f,"5.75Ξ ($2,066)","Sep 28, 2020",5.75,2066,2020-09-28
3927,Sold,0xfb077c,CryptoCo…,1Ξ ($142),"Jan 10, 2020",1,142,2020-01-10
3928,Sold,55241,0xcde160…,0.10Ξ ($115),"Jan 20, 2018",0.1,115,2018-01-20
3929,Sold,0xcd07cc,0x20af8c,"22Ξ ($36,872)","Feb 24, 2021",22,36872,2021-02-24
3929,Sold,0xc155f9,0xcd07cc,"13.88Ξ ($27,019)","Feb 21, 2021",13.88,27019,2021-02-21
3929,Sold,0xe754d1,0xc155f9,"4.99Ξ ($1,765)","Sep 29, 2020",4.99,1765,2020-09-29
3929,Sold,0xf4239e,0xe754d1,"3Ξ ($1,065)","Sep 27, 2020",3,1065,2020-09-27
3929,Sold,Hemba,0xf4239e,2.50Ξ ($865),"Sep 24, 2020",2.5,865,2020-09-24
3930,Sold,Hemba,0x7760e0,0.25Ξ ($98),"Sep 01, 2017",0.25,98,2017-09-01
3931,Sold,0x00d7c9,KittyGr_…,0.05Ξ ($30),"Jun 08, 2018",0.05,30,2018-06-08
3932,Sold,Hemba,0xab231a,0.25Ξ ($109),"Dec 10, 2017",0.25,109,2017-12-10
3933,Sold,Hemba,0xc5b4e3,"2.75Ξ ($1,047)","Sep 20, 2020",2.75,1047,2020-09-20
3934,Sold,0x00d7c9,0xa80be8…,0.05Ξ ($29),"May 31, 2018",0.05,29,2018-05-31
3936,Sold,0x0b88fd,wookie.e…,"42Ξ ($88,706)","Apr 10, 2021",42,88706,2021-04-10
3937,Sold,784659,45688,0.28Ξ ($75),"Jul 04, 2017",0.28,75,2017-07-04
3938,Sold,TokenAng…,Hans,1.80Ξ ($370),"May 27, 2020",1.8,370,2020-05-27
3938,Sold,0x00d7c9,TokenAng…,0.25Ξ ($54),"Jul 22, 2019",0.25,54,2019-07-22
3940,Sold,Hemba,Snowfro,0.42Ξ ($59),"Mar 20, 2019",0.42,59,2019-03-20
3941,Sold,wookie.e…,0xb155c5,"25.50Ξ ($44,684)","Mar 16, 2021",25.5,44684,2021-03-16
3941,Sold,0x13816f,jstn.eth,"8.66Ξ ($15,663)","Feb 14, 2021",8.66,15663,2021-02-14
3941,Sold,Carlini8,0x13816f,"5.50Ξ ($1,963)","Sep 30, 2020",5.5,1963,2020-09-30
3941,Sold,0x7c18fd,Carlini8,"5.98Ξ ($2,139)","Sep 29, 2020",5.98,2139,2020-09-29
3941,Sold,GoWest23,0x7c18fd,"5.85Ξ ($2,093)","Sep 29, 2020",5.85,2093,2020-09-29
3941,Sold,Hemba,GoWest23,0.44Ξ ($76),"May 06, 2019",0.44,76,2019-05-06
3944,Sold,0xddfdcb,TokenAng…,"31.99Ξ ($65,630)","Apr 04, 2021",31.99,65630,2021-04-04
3944,Sold,0xc352b5,0xddfdcb,"30Ξ ($58,580)","Feb 21, 2021",30,58580,2021-02-21
3945,Sold,shilpixe…,0x4b17bb,0.10Ξ ($86),"Mar 01, 2018",0.1,86,2018-03-01
3946,Sold,CPyrc,ross_VRO…,"6Ξ ($7,422)","Jan 27, 2021",6,7422,2021-01-27
3946,Sold,shilpixe…,KittyGr_…,0.25Ξ ($150),"Jun 08, 2018",0.25,150,2018-06-08
3955,Sold,Hemba,Cyrus,0.20Ξ ($25),"Nov 22, 2018",0.2,25,2018-11-22
3956,Sold,0xd6d7ea,9320756,"21.50Ξ ($41,211)","Feb 22, 2021",21.5,41211,2021-02-22
3956,Sold,0x6f4a2d,14079978,"19.50Ξ ($37,655)","Feb 21, 2021",19.5,37655,2021-02-21
3958,Sold,7293485,11185056,"26.60Ξ ($48,378)","Mar 17, 2021",26.6,48378,2021-03-17
3959,Sold,NeonNFT,ao_crypt…,"4.50Ξ ($1,710)","Oct 19, 2020",4.5,1710,2020-10-19
3959,Sold,0x11c9a7,NeonNFT,"4.49Ξ ($1,657)","Oct 16, 2020",4.49,1657,2020-10-16
3959,Sold,Pranksy,0x11c9a7,"5.49Ξ ($1,962)","Sep 29, 2020",5.49,1962,2020-09-29
3959,Sold,Carlini8,Pranksy,"3.99Ξ ($1,427)","Sep 28, 2020",3.99,1427,2020-09-28
3959,Sold,0xb40dac,Carlini8,"3.80Ξ ($1,355)","Sep 28, 2020",3.8,1355,2020-09-28
3959,Sold,Hemba,0xb40dac,"3Ξ ($1,054)","Sep 24, 2020",3,1054,2020-09-24
3960,Sold,Hemba,0x8adbff,0.11Ξ ($77),"Dec 13, 2017",0.11,77,2017-12-13
3964,Sold,0xbfa319,whiterab…,"2.89Ξ ($1,088)","Sep 15, 2020",2.89,1088,2020-09-15
3964,Sold,Hemba,0xbfa319,1.30Ξ ($352),"Feb 16, 2020",1.3,352,2020-02-16
3965,Sold,karbonba…,0x51636d,"25.50Ξ ($45,630)","Mar 11, 2021",25.5,45630,2021-03-11
3965,Sold,Korniej,karbonba…,"6.15Ξ ($2,425)","Oct 12, 2020",6.15,2425,2020-10-12
3965,Sold,Carlini8,Korniej,"3.50Ξ ($1,196)","Sep 23, 2020",3.5,1196,2020-09-23
3965,Sold,Lumberg,Carlini8,"2.69Ξ ($1,012)","Sep 14, 2020",2.69,1012,2020-09-14
3965,Sold,Hemba,Lumberg,1.75Ξ ($361),"May 27, 2020",1.75,361,2020-05-27
3967,Sold,55241,9876623,0.05Ξ ($28),"May 29, 2018",0.05,28,2018-05-29
3968,Sold,161055,10130264,0.20Ξ ($39),"Jul 30, 2017",0.2,39,2017-07-30
3972,Sold,7293485,12216351,"6.12Ξ ($11,368)","Feb 13, 2021",6.12,11368,2021-02-13
3975,Sold,Hemba,Kenney,0.17Ξ ($176),"Jan 19, 2018",0.17,176,2018-01-19
3976,Sold,7293485,7715726,"24.50Ξ ($43,166)","Feb 22, 2021",24.5,43166,2021-02-22
3985,Sold,7293485,9862885,"27Ξ ($48,146)","Feb 22, 2021",27,48146,2021-02-22
3986,Sold,7293485,13886183,"7.05Ξ ($12,660)","Feb 11, 2021",7.05,12660,2021-02-11
3987,Sold,7293485,329791,"24.50Ξ ($47,541)","Mar 13, 2021",24.5,47541,2021-03-13
3988,Sold,7293485,monopoly…,"65Ξ ($139,583)","Apr 12, 2021",65,139583,2021-04-12
3989,Sold,13895965,9015140,"25Ξ ($44,910)","Mar 16, 2021",25,44910,2021-03-16
3989,Sold,7293485,13895965,"22Ξ ($41,397)","Feb 22, 2021",22,41397,2021-02-22
3997,Sold,13886183,148144,"26Ξ ($42,308)","Feb 23, 2021",26,42308,2021-02-23
3997,Sold,7293485,13886183,"7.50Ξ ($13,712)","Feb 12, 2021",7.5,13712,2021-02-12
3999,Sold,Hemba,Kenney,0.15Ξ ($57),"Apr 04, 2018",0.15,57,2018-04-04
4002,Sold,itsfine,so_long_…,"5.70Ξ ($2,188)","Oct 12, 2020",5.7,2188,2020-10-12
4002,Sold,0xe4c479,itsfine,"2.90Ξ ($1,025)","Sep 26, 2020",2.9,1025,2020-09-26
4002,Sold,Hemba,0xe4c479,"3Ξ ($1,051)","Sep 25, 2020",3,1051,2020-09-25
4003,Sold,0x1a4d11,0x398646,"26.50Ξ ($47,314)","Mar 22, 2021",26.5,47314,2021-03-22
4003,Sold,beautifu…,0x1a4d11,"28.50Ξ ($54,311)","Mar 14, 2021",28.5,54311,2021-03-14
4003,Sold,0x19f233,beautifu…,"37Ξ ($54,908)","Mar 02, 2021",37,54908,2021-03-02
4005,Sold,8533182,5828999,0.10Ξ ($70),"Dec 23, 2017",0.1,70,2017-12-23
4006,Sold,0x80be64,Deeze,"18Ξ ($30,137)","Mar 27, 2021",18,30137,2021-03-27
4006,Sold,0x19f233,wookie.e…,"17Ξ ($30,951)","Mar 09, 2021",17,30951,2021-03-09
4008,Sold,0x8ba3e2,sov,0.22Ξ ($67),"Oct 11, 2017",0.22,67,2017-10-11
4009,Sold,jmg,Tschuuul…,0.47Ξ ($80),"Sep 25, 2019",0.47,80,2019-09-25
4009,Sold,0xd8e806,0x00bd3a,0.35Ξ ($68),"Jul 19, 2017",0.35,68,2017-07-19
4009,Sold,Hemba,0xd8e806,0.06Ξ ($12),"Jul 11, 2017",0.06,12,2017-07-11
4011,Sold,0x241ec7,0x504eec,"10.95Ξ ($19,898)","Feb 17, 2021",10.95,19898,2021-02-17
4011,Sold,itsfine,0x241ec7,"5.80Ξ ($9,051)","Feb 03, 2021",5.8,9051,2021-02-03
4011,Sold,0xe4c479,itsfine,"2.90Ξ ($1,025)","Sep 26, 2020",2.9,1025,2020-09-26
4011,Sold,Hemba,0xe4c479,2.80Ξ ($983),"Sep 26, 2020",2.8,983,2020-09-26
4012,Sold,5856208,sov,0.50Ξ ($103),"Jul 13, 2017",0.5,103,2017-07-13
4013,Sold,0x3e17fa,0x701f37,"11Ξ ($18,921)","Feb 15, 2021",11,18921,2021-02-15
4013,Sold,shilpixe…,0x3e17fa,"6.19Ξ ($2,178)","Sep 27, 2020",6.19,2178,2020-09-27
4014,Sold,Pixls,0x9e199d,0.28Ξ ($24),"Dec 16, 2018",0.28,24,2018-12-16
4014,Sold,0xbc081c,Pixls,0.15Ξ ($30),"Oct 25, 2018",0.15,30,2018-10-25
4015,Sold,shilpixe…,0x4c1bd9…,4Ξ ($849),"May 09, 2020",4,849,2020-05-09
4017,Sold,12586027,9098894,0.33Ξ ($74),"Jul 24, 2017",0.33,74,2017-07-24
4018,Sold,0x65ba4f,0x289a0e,"36Ξ ($67,270)","Mar 14, 2021",36,67270,2021-03-14
4018,Sold,ZeroC,0x65ba4f,"35Ξ ($53,569)","Mar 01, 2021",35,53569,2021-03-01
4018,Sold,0x2fdacd,ZeroC,"5.50Ξ ($6,065)","Jan 13, 2021",5.5,6065,2021-01-13
4019,Sold,CPyrc,0x23b50b,"80Ξ ($144,583)","Mar 12, 2021",80,144583,2021-03-12
4019,Sold,0x2fdacd,CPyrc,"11Ξ ($11,810)","Jan 13, 2021",11,11810,2021-01-13
4020,Sold,Pranksy,0x171f44,0.85Ξ ($190),"Mar 04, 2020",0.85,190,2020-03-04
4020,Sold,0x00d7c9,Pranksy,0.25Ξ ($45),"Sep 02, 2019",0.25,45,2019-09-02
4021,Sold,MrTpunks…,DANNY,"32Ξ ($10,370)","Sep 24, 2020",32,10370,2020-09-24
4021,Sold,jmg,MrTpunks,5Ξ ($852),"Jan 17, 2020",5,852,2020-01-17
4021,Sold,0x0a4eaf…,0x00bd3a,0.64Ξ ($122),"Jul 11, 2017",0.64,122,2017-07-11
4023,Sold,Carlini8,0xec4b06,"3.10Ξ ($1,091)","Sep 27, 2020",3.1,1091,2020-09-27
4023,Sold,0x0eee8c,Carlini8,"3Ξ ($1,063)","Sep 26, 2020",3,1063,2020-09-26
4023,Sold,0x5aaeb9,0x0eee8c,"2.90Ξ ($1,004)","Sep 25, 2020",2.9,1004,2020-09-25
4023,Sold,0x5e7ee9,0x5aaeb9,2.60Ξ ($913),"Sep 24, 2020",2.6,913,2020-09-24
4023,Sold,Hemba,0x5e7ee9,2.30Ξ ($796),"Sep 24, 2020",2.3,796,2020-09-24
4024,Sold,JeffreyC…,0x8a873b…,0.03Ξ ($6),"Sep 14, 2018",0.03,6,2018-09-14
4024,Sold,Dude_Nak…,JeffreyC…,0.10Ξ ($47),"Jul 27, 2018",0.1,47,2018-07-27
4024,Sold,0x8234be,Dude_Nak…,0.09Ξ ($62),"Mar 13, 2018",0.09,62,2018-03-13
4025,Sold,48442,8008732,0.19Ξ ($53),"Jun 30, 2017",0.19,53,2017-06-30
4025,Sold,5966219,48442,0.06Ξ ($20),"Jun 23, 2017",0.06,20,2017-06-23
4026,Sold,0x087173,0xd7e077,"25Ξ ($52,523)","Apr 06, 2021",25,52523,2021-04-06
4026,Sold,0x2a6227,0x087173,"4.99Ξ ($1,721)","Sep 25, 2020",4.99,1721,2020-09-25
4026,Sold,Pranksy,0x2a6227,"2.80Ξ ($1,053)","Sep 14, 2020",2.8,1053,2020-09-14
4026,Sold,juggerna…,alxo,0.25Ξ ($38),"Nov 23, 2019",0.25,38,2019-11-23
4027,Sold,10734384,12942595,"10.10Ξ ($17,497)","Feb 15, 2021",10.1,17497,2021-02-15
4029,Sold,0xf1b658,heeee.et…,"34Ξ ($65,294)","Feb 19, 2021",34,65294,2021-02-19
4029,Sold,Pranksy,0x5b331e,"19Ξ ($22,581)","Jan 06, 2021",19,22581,2021-01-06
4029,Sold,0xa3cb30,2pac,"18Ξ ($10,980)","Dec 25, 2020",18,10980,2020-12-25
4031,Sold,Deeze,0x546149,"22.94Ξ ($48,182)","Apr 05, 2021",22.94,48182,2021-04-05
4031,Sold,0xa3cb30,Deeze,"19.99Ξ ($36,853)","Mar 30, 2021",19.99,36853,2021-03-30
4034,Sold,hellogar…,0x0ebd1a,"19.90Ξ ($35,367)","Feb 17, 2021",19.9,35367,2021-02-17
4034,Sold,0x99b884,hellogar…,"10Ξ ($18,417)","Feb 12, 2021",10,18417,2021-02-12
4035,Sold,0xdfce59,0x5e43e1,"14.50Ξ ($27,643)","Feb 18, 2021",14.5,27643,2021-02-18
4035,Sold,Slats_et…,0xdfce59,"4.50Ξ ($5,528)","Jan 08, 2021",4.5,5528,2021-01-08
4035,Sold,DANNY,Slats_et…,2.50Ξ ($517),"May 27, 2020",2.5,517,2020-05-27
4035,Sold,0x4c1bd9…,DANNY,1Ξ ($219),"May 03, 2020",1,219,2020-05-03
4035,Sold,Hemba,0x4c1bd9…,0.50Ξ ($85),"May 09, 2019",0.5,85,2019-05-09
4036,Sold,0xd71a41,0xa5c80b,"5.50Ξ ($5,569)","Jan 04, 2021",5.5,5569,2021-01-04
4036,Sold,0x3e17fa,0xd71a41,"4.10Ξ ($2,484)","Nov 24, 2020",4.1,2484,2020-11-24
4036,Sold,Zieg,0x3e17fa,"3.90Ξ ($1,349)","Sep 24, 2020",3.9,1349,2020-09-24
4036,Sold,j1mmy,Zieg,2Ξ ($723),"Sep 14, 2020",2,723,2020-09-14
4036,Sold,VonMises,j1mmy,1.40Ξ ($290),"May 23, 2020",1.4,290,2020-05-23
4036,Sold,Hemba,VonMises,1.15Ξ ($209),"Apr 22, 2020",1.15,209,2020-04-22
4036,Sold,0x0a4eaf…,Hemba,0.90Ξ ($166),"Jan 30, 2020",0.9,166,2020-01-30
4036,Sold,0x0b30fd,0x0a4eaf…,0.20Ξ ($57),"Sep 19, 2017",0.2,57,2017-09-19
4038,Sold,0x0642f6,10011784,0.75Ξ ($151),"May 17, 2020",0.75,151,2020-05-17
4040,Sold,733437,45688,0.30Ξ ($83),"Jul 03, 2017",0.3,83,2017-07-03
4041,Sold,monopoly…,0x78b58e,"60Ξ ($128,846)","Apr 12, 2021",60,128846,2021-04-12
4041,Sold,0x832179,monopoly…,"20Ξ ($34,457)","Feb 11, 2021",20,34457,2021-02-11
4044,Sold,0x84c920,pelvis.e…,"22.50Ξ ($41,023)","Mar 09, 2021",22.5,41023,2021-03-09
4044,Sold,0x78f0a6,0x84c920,"26.98Ξ ($44,336)","Mar 07, 2021",26.98,44336,2021-03-07
4045,Sold,droxey,0x717403,0.19Ξ ($88),"Jun 22, 2018",0.19,88,2018-06-22
4046,Sold,Pranksy,0x568cf5,"5.99Ξ ($2,178)","Sep 28, 2020",5.99,2178,2020-09-28
4046,Sold,0xef764b…,Pranksy,"3.99Ξ ($1,427)","Sep 28, 2020",3.99,1427,2020-09-28
4046,Sold,0xe754d1,0xef764b…,2.40Ξ ($831),"Sep 24, 2020",2.4,831,2020-09-24
4046,Sold,W_M_Peas…,0xe754d1,2.22Ξ ($763),"Sep 24, 2020",2.22,763,2020-09-24
4046,Sold,Pranksy,W_M_Peas…,1.20Ξ ($419),"Sep 08, 2020",1.2,419,2020-09-08
4046,Sold,Hemba,Pranksy,0.50Ξ ($67),"Jan 04, 2020",0.5,67,2020-01-04
4047,Sold,0x515a82,7823584,0.15Ξ ($44),"Jun 29, 2017",0.15,44,2017-06-29
4049,Sold,Hemba,0xd8e806,0.39Ξ ($88),"Jul 12, 2017",0.39,88,2017-07-12
4050,Sold,Motorsai…,0x8f903c,"20Ξ ($41,509)","Apr 09, 2021",20,41509,2021-04-09
4050,Sold,nostro,Motorsai…,"3Ξ ($1,057)","Sep 27, 2020",3,1057,2020-09-27
4050,Sold,Hemba,nostro,0.34Ξ ($57),"Apr 06, 2019",0.34,57,2019-04-06
4051,Sold,j1mmy_va…,0x50cde7,"5Ξ ($6,412)","Jan 10, 2021",5,6412,2021-01-10
4051,Sold,0x0553de,j1mmy,1.29Ξ ($449),"Sep 09, 2020",1.29,449,2020-09-09
4051,Sold,Hemba,0x0553de,1.50Ξ ($297),"May 26, 2020",1.5,297,2020-05-26
4052,Sold,Hemba,0xcf6a52,1.50Ξ ($332),"May 29, 2020",1.5,332,2020-05-29
4053,Sold,monopoly…,0x8b51c1,"13.37Ξ ($26,571)","Feb 20, 2021",13.37,26571,2021-02-20
4053,Sold,0x3e17fa,monopoly…,"8.50Ξ ($15,515)","Feb 16, 2021",8.5,15515,2021-02-16
4053,Sold,NeonNFT,0x3e17fa,"2.90Ξ ($1,021)","Sep 26, 2020",2.9,1021,2020-09-26
4053,Sold,Hemba,NeonNFT,2.80Ξ ($982),"Sep 26, 2020",2.8,982,2020-09-26
4054,Sold,5966219,957165,"31.70Ξ ($66,258)","Apr 10, 2021",31.7,66258,2021-04-10
4055,Sold,antunes_…,NFTinTin,0.60Ξ ($90),"Dec 02, 2019",0.6,90,2019-12-02
4055,Sold,0xf5099e,antunes_…,0.45Ξ ($72),"Oct 24, 2019",0.45,72,2019-10-24
4055,Sold,0x0bf913,0xa0a59c,0.37Ξ ($102),"Jul 03, 2017",0.37,102,2017-07-03
4057,Sold,Hemba,0x9e199d,0.13Ξ ($25),"Oct 12, 2018",0.13,25,2018-10-12
4058,Sold,0x02751f,juggerna…,0.20Ξ ($39),"Jul 30, 2017",0.2,39,2017-07-30
4059,Sold,Deeze,0xa32fcc,"7.05Ξ ($12,662)","Feb 13, 2021",7.05,12662,2021-02-13
4059,Sold,0x6f4a2d,Deeze,"6.90Ξ ($12,443)","Feb 13, 2021",6.9,12443,2021-02-13
4063,Sold,14704200,5786847,"28Ξ ($49,809)","Mar 21, 2021",28,49809,2021-03-21
4063,Sold,7293485,14704200,"24.50Ξ ($43,866)","Mar 18, 2021",24.5,43866,2021-03-18
4064,Sold,7293485,0x22fa8c,"22Ξ ($38,159)","Feb 22, 2021",22,38159,2021-02-22
4066,Sold,0x0553de,josie,0.84Ξ ($168),"May 16, 2020",0.84,168,2020-05-16
4066,Sold,0x00d7c9,0x0553de,0.40Ξ ($118),"Jun 21, 2019",0.4,118,2019-06-21
4066,Sold,Hemba,juggerna…,0.44Ξ ($90),"Jul 25, 2017",0.44,90,2017-07-25
4068,Sold,0x50c946,0x11c9a7,"4.25Ξ ($2,291)","Nov 28, 2020",4.25,2291,2020-11-28
4068,Sold,cryptosa…,0x50c946,"4.20Ξ ($1,505)","Sep 28, 2020",4.2,1505,2020-09-28
4068,Sold,Hemba,cryptosa…,1Ξ ($203),"May 22, 2020",1,203,2020-05-22
4069,Sold,Hemba,0xd8e806,0.42Ξ ($79),"Jul 11, 2017",0.42,79,2017-07-11
4070,Sold,0x00d7c9,7823584,0.05Ξ ($28),"May 30, 2018",0.05,28,2018-05-30
4071,Sold,12743405,3590728,"22Ξ ($36,896)","Mar 07, 2021",22,36896,2021-03-07
4072,Sold,0x08562e,0xa80be8…,0.05Ξ ($22),"Jul 10, 2018",0.05,22,2018-07-10
4072,Sold,Hemba,0x08562e,0.07Ξ ($80),"Jan 08, 2018",0.07,80,2018-01-08
4077,Sold,EliteCat…,0xa567b9,"21.89Ξ ($34,706)","Mar 06, 2021",21.89,34706,2021-03-06
4077,Sold,Hemba,GoWest23,0.46Ξ ($79),"May 06, 2019",0.46,79,2019-05-06
4078,Sold,7293485,14175872,"10Ξ ($18,172)","Feb 13, 2021",10,18172,2021-02-13
4079,Sold,2767820,10750822,"9.75Ξ ($17,027)","Feb 17, 2021",9.75,17027,2021-02-17
4079,Sold,7293485,2767820,"6.80Ξ ($12,631)","Feb 13, 2021",6.8,12631,2021-02-13
4082,Sold,0xef466e,0x3fcddb,"47.99Ξ ($80,574)","Mar 29, 2021",47.99,80574,2021-03-29
4082,Sold,EliteCat…,0xef466e,"37.10Ξ ($62,632)","Mar 28, 2021",37.1,62632,2021-03-28
4082,Sold,0x6f4a2d,EliteCat…,"22.82Ξ ($36,779)","Feb 08, 2021",22.82,36779,2021-02-08
4083,Sold,7293485,8322618,"9Ξ ($16,278)","Feb 14, 2021",9,16278,2021-02-14
4084,Sold,0x6f4a2d,pelvis.e…,"7.84Ξ ($13,507)","Feb 11, 2021",7.84,13507,2021-02-11
4085,Sold,7293485,14214181,"22Ξ ($38,159)","Feb 22, 2021",22,38159,2021-02-22
4089,Sold,7293485,13901109,"16.10Ξ ($30,878)","Apr 01, 2021",16.1,30878,2021-04-01
4091,Sold,0x6f4a2d,Deeze,"14Ξ ($28,718)","Apr 05, 2021",14,28718,2021-04-05
4101,Sold,0x1da533,0x0ebd1a,"22Ξ ($39,099)","Feb 17, 2021",22,39099,2021-02-17
4101,Sold,Loopify,DANNY,"11.50Ξ ($15,510)","Jan 30, 2021",11.5,15510,2021-01-30
4101,Sold,0x8bb4f3,Loopify,"8Ξ ($10,103)","Jan 27, 2021",8,10103,2021-01-27
4102,Sold,0x033ee7,0xbf91e1,"5.55Ξ ($7,155)","Feb 01, 2021",5.55,7155,2021-02-01
4102,Sold,NeonNFT,0x033ee7,"2.90Ξ ($1,031)","Sep 26, 2020",2.9,1031,2020-09-26
4102,Sold,Hemba,NeonNFT,2.80Ξ ($982),"Sep 26, 2020",2.8,982,2020-09-26
4103,Sold,10734384,1611480,"15Ξ ($27,381)","Feb 14, 2021",15,27381,2021-02-14
4104,Sold,5657750,1975358,"14.30Ξ ($27,454)","Feb 19, 2021",14.3,27454,2021-02-19
4104,Sold,1700403,5657750,"12Ξ ($22,996)","Feb 18, 2021",12,22996,2021-02-18
4105,Sold,0x0503ed,0x20af8c,"27Ξ ($41,903)","Feb 23, 2021",27,41903,2021-02-23
4105,Sold,Cryptokk…,0x0503ed,"20.50Ξ ($40,053)","Feb 21, 2021",20.5,40053,2021-02-21
4105,Sold,ark1,Cryptokk…,0.35Ξ ($45),"Dec 20, 2019",0.35,45,2019-12-20
4105,Sold,0x00d7c9,ark1,0.25Ξ ($47),"Sep 15, 2019",0.25,47,2019-09-15
4108,Sold,0x033ee7,0x29b1b2,"5.98Ξ ($10,275)","Feb 08, 2021",5.98,10275,2021-02-08
4108,Sold,NeonNFT,0x033ee7,"2.90Ξ ($1,031)","Sep 26, 2020",2.9,1031,2020-09-26
4108,Sold,0xe4c479,NeonNFT,2.50Ξ ($877),"Sep 26, 2020",2.5,877,2020-09-26
4108,Sold,Hemba,0xe4c479,2.30Ξ ($779),"Sep 24, 2020",2.3,779,2020-09-24
4110,Sold,Carlini8,0x0154d2,"3.10Ξ ($1,118)","Sep 27, 2020",3.1,1118,2020-09-27
4110,Sold,0xe754d1,Carlini8,"2.95Ξ ($1,047)","Sep 26, 2020",2.95,1047,2020-09-26
4110,Sold,Pranksy,0xe754d1,1.90Ξ ($716),"Sep 14, 2020",1.9,716,2020-09-14
4110,Sold,Goop,alxo,0.26Ξ ($40),"Nov 23, 2019",0.26,40,2019-11-23
4110,Sold,juggerna…,Goop,0.25Ξ ($38),"Nov 23, 2019",0.25,38,2019-11-23
4111,Sold,0x13816f,0x1ac7bb,"17.50Ξ ($33,573)","Feb 18, 2021",17.5,33573,2021-02-18
4111,Sold,Loopify,0x13816f,"4.75Ξ ($1,699)","Sep 28, 2020",4.75,1699,2020-09-28
4111,Sold,Carlini8,Loopify,"4.20Ξ ($1,505)","Sep 28, 2020",4.2,1505,2020-09-28
4111,Sold,0x5e7ee9,Carlini8,"3.80Ξ ($1,355)","Sep 28, 2020",3.8,1355,2020-09-28
4111,Sold,0xb40dac,0x5e7ee9,"3.50Ξ ($1,237)","Sep 26, 2020",3.5,1237,2020-09-26
4111,Sold,0xe754d1,0xb40dac,2.75Ξ ($966),"Sep 24, 2020",2.75,966,2020-09-24
4111,Sold,Pranksy,0xe754d1,2.20Ξ ($821),"Sep 14, 2020",2.2,821,2020-09-14
4111,Sold,CPyrc,Pranksy,1.89Ξ ($712),"Sep 14, 2020",1.89,712,2020-09-14
4111,Sold,Hemba,CPyrc,1.10Ξ ($371),"Sep 07, 2020",1.1,371,2020-09-07
4112,Sold,0x3e17fa,0x304288,"25Ξ ($49,771)","Feb 20, 2021",25,49771,2021-02-20
4112,Sold,0xb44969,0x3e17fa,"19.40Ξ ($33,792)","Feb 15, 2021",19.4,33792,2021-02-15
4112,Sold,2pac,0xbf6ccf,"14.10Ξ ($8,208)","Dec 24, 2020",14.1,8208,2020-12-24
4112,Sold,0xa3cb30,2pac,"14Ξ ($7,128)","Nov 20, 2020",14,7128,2020-11-20
4113,Sold,shilpixe…,0x4c1bd9…,2Ξ ($425),"May 19, 2020",2,425,2020-05-19
4115,Sold,4656795,7333681,0.12Ξ ($105),"Mar 02, 2018",0.12,105,2018-03-02
4116,Sold,0x6c84fe,0xef784c,"24.91Ξ ($45,164)","Mar 12, 2021",24.91,45164,2021-03-12
4116,Sold,shilpixe…,0x6c84fe,"15Ξ ($28,696)","Feb 18, 2021",15,28696,2021-02-18
4117,Sold,0xd6d7ea,0x561786,"22.20Ξ ($41,217)","Feb 22, 2021",22.2,41217,2021-02-22
4117,Sold,aviexkak…,0xd6d7ea,"21Ξ ($40,253)","Feb 22, 2021",21,40253,2021-02-22
4117,Sold,Alex3422,0x13816f,"5.50Ξ ($1,911)","Oct 03, 2020",5.5,1911,2020-10-03
4117,Sold,Novo311,Alex3422,"5.98Ξ ($2,139)","Sep 29, 2020",5.98,2139,2020-09-29
4117,Sold,0x5e7ee9,Novo311,"3.20Ξ ($1,121)","Sep 25, 2020",3.2,1121,2020-09-25
4117,Sold,0x86126b,0x5e7ee9,"3.20Ξ ($1,107)","Sep 24, 2020",3.2,1107,2020-09-24
4117,Sold,Hemba,0x86126b,3Ξ ($985),"Sep 23, 2020",3,985,2020-09-23
4118,Sold,shilpixe…,0xa910fa,"35Ξ ($66,012)","Mar 15, 2021",35,66012,2021-03-15
4120,Sold,337252,0x_NFT,"8Ξ ($2,902)","Sep 28, 2020",8,2902,2020-09-28
4120,Sold,2233870,0xd8e806,0.32Ξ ($72),"Jul 20, 2017",0.32,72,2017-07-20
4120,Sold,12322844,0x22160e,0.30Ξ ($58),"Jul 19, 2017",0.3,58,2017-07-19
4122,Sold,antunes_…,DANNY,1.30Ξ ($248),"May 10, 2020",1.3,248,2020-05-10
4122,Sold,shilpixe…,antunes_…,1Ξ ($193),"Apr 26, 2020",1,193,2020-04-26
4123,Sold,0x5aaeb9,ddaavvee,2.70Ξ ($948),"Sep 24, 2020",2.7,948,2020-09-24
4123,Sold,0xf28820,0x5aaeb9,2.45Ξ ($848),"Sep 24, 2020",2.45,848,2020-09-24
4123,Sold,Carlini8,0xf28820,2Ξ ($755),"Sep 15, 2020",2,755,2020-09-15
4123,Sold,natealex,Carlini8,1.46Ξ ($549),"Sep 14, 2020",1.46,549,2020-09-14
4123,Sold,0x48db19,natealex,1Ξ ($364),"Sep 11, 2020",1,364,2020-09-11
4124,Sold,5966219,7715726,"47Ξ ($82,808)","Feb 22, 2021",47,82808,2021-02-22
4125,Sold,0x1a96af,17MILE,1.75Ξ ($362),"May 24, 2020",1.75,362,2020-05-24
4126,Sold,6781763,8850077,0.33Ξ ($89),"Jul 04, 2017",0.33,89,2017-07-04
4126,Sold,5331586,6781763,0.18Ξ ($50),"Jul 03, 2017",0.18,50,2017-07-03
4128,Sold,10053431,sov,0.50Ξ ($85),"Jul 15, 2017",0.5,85,2017-07-15
4129,Sold,0x4dcaf3,393680,1.50Ξ ($296),"Apr 26, 2020",1.5,296,2020-04-26
4129,Sold,0xe45df5,5098227,1.60Ξ ($386),"Jul 07, 2017",1.6,386,2017-07-07
4130,Sold,0x7e455c,0x5fd36a,"28Ξ ($44,129)","Mar 25, 2021",28,44129,2021-03-25
4130,Sold,Pranksy,0x241ec7,"12.99Ξ ($23,947)","Feb 13, 2021",12.99,23947,2021-02-13
4130,Sold,EliteCat…,Pranksy,"9.55Ξ ($15,934)","Feb 04, 2021",9.55,15934,2021-02-04
4130,Sold,0x4dcaf3,GoWest23,0.75Ξ ($100),"Jan 04, 2020",0.75,100,2020-01-04
4130,Sold,0xe45df5,0x4dcaf3,0.40Ξ ($96),"Jul 07, 2017",0.4,96,2017-07-07
4131,Sold,0xa3cb30,6085246,"19Ξ ($34,928)","Mar 30, 2021",19,34928,2021-03-30
4132,Sold,0xa3cb30,MrTpunks,"12.50Ξ ($4,599)","Oct 17, 2020",12.5,4599,2020-10-17
4139,Sold,shilpixe…,Kenney,0.19Ξ ($162),"Mar 03, 2018",0.19,162,2018-03-03
4140,Sold,0x62bdc6,✨🚀🌙.et…,"27.95Ξ ($50,199)","Mar 16, 2021",27.95,50199,2021-03-16
4140,Sold,0x1dabc3,0x62bdc6,"26Ξ ($49,038)","Mar 15, 2021",26,49038,2021-03-15
4140,Sold,redlione…,0x1dabc3,"19.99Ξ ($40,095)","Feb 20, 2021",19.99,40095,2021-02-20
4140,Sold,CPyrc,redlione…,"9.99Ξ ($3,521)","Sep 26, 2020",9.99,3521,2020-09-26
4140,Sold,MBK,CPyrc,2Ξ ($454),"Jul 03, 2020",2,454,2020-07-03
4140,Sold,ross_VRO…,MBK,1.50Ξ ($202),"Jan 04, 2020",1.5,202,2020-01-04
4140,Sold,0xf5099e,ross_VRO…,0.30Ξ ($35),"Dec 27, 2018",0.3,35,2018-12-27
4140,Sold,0x0b30fd,0xa0a59c,0.15Ξ ($44),"Jun 29, 2017",0.15,44,2017-06-29
4141,Sold,0x0f4bc9,0xdf612c,"47Ξ ($97,546)","Apr 09, 2021",47,97546,2021-04-09
4141,Sold,shilpixe…,0x0f4bc9,"35.50Ξ ($57,073)","Mar 25, 2021",35.5,57073,2021-03-25
4143,Sold,0xc00c2b,5772875,2.20Ξ ($494),"Aug 03, 2017",2.2,494,2017-08-03
4144,Sold,0x5b098b,VonMises,"7.50Ξ ($1,548)","May 27, 2020",7.5,1548,2020-05-27
4144,Sold,shilpixe…,0x5b098b,0.31Ξ ($92),"Aug 10, 2017",0.31,92,2017-08-10
4145,Sold,0xddfdcb,0x1d3db4,"26.99Ξ ($48,804)","Mar 12, 2021",26.99,48804,2021-03-12
4145,Sold,0x5b098b,0xddfdcb,"12.75Ξ ($23,384)","Feb 17, 2021",12.75,23384,2021-02-17
4145,Sold,Hemba,0x5b098b,0.17Ξ ($19),"Nov 26, 2018",0.17,19,2018-11-26
4146,Sold,Davicio,0x4c1bd9…,2.40Ξ ($907),"Sep 14, 2020",2.4,907,2020-09-14
4146,Sold,cielxnoe…,Davicio,0.90Ξ ($129),"Jan 13, 2020",0.9,129,2020-01-13
4146,Sold,0x8234be,cielxnoe…,0.14Ξ ($100),"Dec 17, 2017",0.14,100,2017-12-17
4148,Sold,zonted,0x29b1b2,"9Ξ ($12,638)","Jan 25, 2021",9,12638,2021-01-25
4148,Sold,0xcb832d,zonted,"5.20Ξ ($1,841)","Sep 29, 2020",5.2,1841,2020-09-29
4148,Sold,0xedc9c1,0xcb832d,"3Ξ ($1,105)","Sep 15, 2020",3,1105,2020-09-15
4148,Sold,0x5b098b,0xedc9c1,0.30Ξ ($91),"Jun 24, 2017",0.3,91,2017-06-24
4150,Sold,shilpixe…,Fanny,0.15Ξ ($83),"Mar 20, 2018",0.15,83,2018-03-20
4152,Sold,0xbff231,0x93e453,"22Ξ ($47,231)","Apr 11, 2021",22,47231,2021-04-11
4152,Sold,heeee.et…,0x9c5801,"20Ξ ($31,022)","Mar 03, 2021",20,31022,2021-03-03
4152,Sold,charley,heeee.et…,"16.48Ξ ($32,164)","Feb 21, 2021",16.48,32164,2021-02-21
4152,Sold,MBK,0x9fd86d,"4.25Ξ ($2,566)","Dec 22, 2020",4.25,2566,2020-12-22
4152,Sold,juggerna…,MBK,1.30Ξ ($266),"May 24, 2020",1.3,266,2020-05-24
4153,Sold,8338175,3641651,"31Ξ ($67,742)","Apr 10, 2021",31,67742,2021-04-10
4153,Sold,12196282,8338175,"23Ξ ($43,847)","Feb 18, 2021",23,43847,2021-02-18
4154,Sold,4656795,sov,0.45Ξ ($91),"Jul 31, 2017",0.45,91,2017-07-31
4155,Sold,Hemba,0x98c488,0.85Ξ ($337),"Aug 23, 2020",0.85,337,2020-08-23
4156,Sold,0x9e199d,4156.eth,650Ξ ($1.25M),"Feb 18, 2021",650,1250000,2021-02-18
4156,Sold,jmg,0x9e199d,3.29Ξ ($645),"Sep 17, 2018",3.29,645,2018-09-17
4156,Sold,0xc2ac3c,0x7eb46d,0.20Ξ ($64),"Aug 12, 2018",0.2,64,2018-08-12
4157,Sold,0xbf6ccf,Adidust,"4.25Ξ ($5,758)","Jan 26, 2021",4.25,5758,2021-01-26
4157,Sold,0xb40dac,gaus,"3.50Ξ ($1,252)","Sep 28, 2020",3.5,1252,2020-09-28
4157,Sold,0xf4239e,0xb40dac,"3.20Ξ ($1,142)","Sep 27, 2020",3.2,1142,2020-09-27
4157,Sold,Hemba,0xf4239e,2.30Ξ ($795),"Sep 24, 2020",2.3,795,2020-09-24
4158,Sold,0x02751f,juggerna…,0.20Ξ ($39),"Jul 30, 2017",0.2,39,2017-07-30
4161,Sold,0xc11192,0x8a3d2e,"23.49Ξ ($48,480)","Apr 08, 2021",23.49,48480,2021-04-08
4161,Sold,pelvis.e…,0xc11192,"13.79Ξ ($26,439)","Feb 20, 2021",13.79,26439,2021-02-20
4161,Sold,0x5b098b,pelvis.e…,"7.90Ξ ($14,809)","Feb 13, 2021",7.9,14809,2021-02-13
4161,Sold,0xd8e806,0x5b098b,0.25Ξ ($72),"Aug 15, 2017",0.25,72,2017-08-15
4161,Sold,Hemba,0xd8e806,0.44Ξ ($84),"Jul 11, 2017",0.44,84,2017-07-11
4162,Sold,Zonked,0xdfce59,"4Ξ ($1,401)","Oct 09, 2020",4,1401,2020-10-09
4162,Sold,0x11c9a7,Zonked,2Ξ ($753),"Sep 15, 2020",2,753,2020-09-15
4162,Sold,Hemba,0x11c9a7,1.40Ξ ($531),"Sep 13, 2020",1.4,531,2020-09-13
4163,Sold,733437,sov,0.18Ξ ($52),"Sep 20, 2017",0.18,52,2017-09-20
4164,Sold,337252,6689278,"27Ξ ($48,200)","Mar 15, 2021",27,48200,2021-03-15
4164,Sold,5966219,14215174,0.35Ξ ($78),"Jul 12, 2017",0.35,78,2017-07-12
4164,Sold,733437,5966219,0.23Ξ ($70),"Jun 24, 2017",0.23,70,2017-06-24
4166,Sold,2299655,13446246,1Ξ ($383),"Aug 02, 2020",1,383,2020-08-02
4167,Sold,15808747,0x5b098b,0.23Ξ ($70),"Jun 24, 2017",0.23,70,2017-06-24
4168,Sold,Hemba,0xd83946,0.34Ξ ($51),"Feb 22, 2019",0.34,51,2019-02-22
4171,Sold,Begood,0xa0efdc,"18Ξ ($29,495)","Feb 24, 2021",18,29495,2021-02-24
4171,Sold,Hemba,Begood,1.35Ξ ($315),"Jul 06, 2020",1.35,315,2020-07-06
4172,Sold,Hemba,0x98c488,0.85Ξ ($337),"Aug 23, 2020",0.85,337,2020-08-23
4174,Sold,0x2d18c7,0x62bdc6,"16.30Ξ ($33,692)","Apr 08, 2021",16.3,33692,2021-04-08
4174,Sold,0x297009,0x2d18c7,"19.25Ξ ($32,680)","Mar 27, 2021",19.25,32680,2021-03-27
4174,Sold,0xb73d34,0x297009,"21Ξ ($37,198)","Mar 22, 2021",21,37198,2021-03-22
4174,Sold,0xffe678,0xb73d34,"18.50Ξ ($33,569)","Mar 08, 2021",18.5,33569,2021-03-08
4174,Sold,0x033ee7,0xffe678,"5.10Ξ ($7,307)","Feb 02, 2021",5.1,7307,2021-02-02
4174,Sold,0xe4c479,0x033ee7,"2.90Ξ ($1,031)","Sep 26, 2020",2.9,1031,2020-09-26
4174,Sold,0x067034,0xe4c479,2.85Ξ ($999),"Sep 26, 2020",2.85,999,2020-09-26
4174,Sold,Carlini8,0x067034,2.20Ξ ($720),"Sep 24, 2020",2.2,720,2020-09-24
4174,Sold,Pranksy,Carlini8,1.80Ξ ($678),"Sep 14, 2020",1.8,678,2020-09-14
4174,Sold,Hemba,Pranksy,1.35Ξ ($494),"Sep 11, 2020",1.35,494,2020-09-11
4175,Sold,Carlini8,0x568cf5,"5.80Ξ ($2,076)","Sep 29, 2020",5.8,2076,2020-09-29
4175,Sold,GoWest23,Carlini8,"5.45Ξ ($1,933)","Sep 29, 2020",5.45,1933,2020-09-29
4175,Sold,Hemba,GoWest23,0.43Ξ ($75),"May 06, 2019",0.43,75,2019-05-06
4176,Sold,0x338fd1,0xb4bb41,"85Ξ ($157,314)","Mar 31, 2021",85,157314,2021-03-31
4176,Sold,0xf1b658,0x338fd1,"19Ξ ($26,564)","Jan 25, 2021",19,26564,2021-01-25
4176,Sold,Pranksy,0x5b331e,"15Ξ ($15,672)","Jan 12, 2021",15,15672,2021-01-12
4176,Sold,0x440888,Pranksy,"13.50Ξ ($14,023)","Jan 04, 2021",13.5,14023,2021-01-04
4176,Sold,Hemba,0x440888,0.15Ξ ($208),"Jan 13, 2018",0.15,208,2018-01-13
4178,Sold,0x4dcaf3,TokenAng…,"30Ξ ($5,914)","Apr 26, 2020",30,5914,2020-04-26
4178,Sold,straybit…,0x4dcaf3,"8Ξ ($1,928)","Jul 07, 2017",8,1928,2017-07-07
4179,Sold,55241,stazie,0.45Ξ ($115),"May 30, 2019",0.45,115,2019-05-30
4181,Sold,7293485,11644366,"18Ξ ($32,736)","Feb 17, 2021",18,32736,2021-02-17
4182,Sold,7293485,3333383,"21.50Ξ ($41,248)","Feb 22, 2021",21.5,41248,2021-02-22
4186,Sold,6280042,11728540,"19.46Ξ ($37,452)","Feb 21, 2021",19.46,37452,2021-02-21
4186,Sold,9399070,6280042,"13.55Ξ ($25,979)","Feb 20, 2021",13.55,25979,2021-02-20
4186,Sold,7293485,14175872,"5.90Ξ ($10,559)","Feb 11, 2021",5.9,10559,2021-02-11
4187,Sold,7293485,9515916,"25Ξ ($46,839)","Mar 14, 2021",25,46839,2021-03-14
4189,Sold,0xe28855,astrober…,"21Ξ ($43,341)","Apr 08, 2021",21,43341,2021-04-08
4189,Sold,0x6f4a2d,0xe28855,"16Ξ ($29,239)","Mar 31, 2021",16,29239,2021-03-31
4194,Sold,7293485,9399070,"10Ξ ($18,088)","Feb 14, 2021",10,18088,2021-02-14
4195,Sold,7293485,10673338,"9.00Ξ ($16,424)","Feb 14, 2021",9,16424,2021-02-14
4196,Sold,7293485,957165,"18Ξ ($37,206)","Apr 08, 2021",18,37206,2021-04-08
4197,Sold,0x6f4a2d,👁‍🗨👁‍…,"13.75Ξ ($28,587)","Apr 04, 2021",13.75,28587,2021-04-04
4198,Sold,7293485,10393464,"8.49Ξ ($15,425)","Feb 13, 2021",8.49,15425,2021-02-13
4201,Sold,Matthew_…,friskynf…,2.10Ξ ($803),"Sep 18, 2020",2.1,803,2020-09-18
4201,Sold,Pranksy,Matthew_…,1.25Ξ ($460),"Sep 11, 2020",1.25,460,2020-09-11
4201,Sold,ChrisR,Pranksy,1.29Ξ ($470),"Sep 11, 2020",1.29,470,2020-09-11
4201,Sold,_K_A_M_I…,Pranksy,0.98Ξ ($204),"May 24, 2020",0.98,204,2020-05-24
4201,Sold,Michel_M…,_K_A_M_I…,0.56Ξ ($124),"Feb 26, 2020",0.56,124,2020-02-26
4201,Sold,antunes_…,Michel_M…,0.35Ξ ($51),"Nov 25, 2019",0.35,51,2019-11-25
4201,Sold,0x00d7c9,antunes_…,0.30Ξ ($52),"Sep 28, 2019",0.3,52,2019-09-28
4202,Sold,0xef784c,onizuka.…,"27.50Ξ ($44,507)","Mar 26, 2021",27.5,44507,2021-03-26
4202,Sold,0x886bdd,0xef784c,"26Ξ ($46,083)","Mar 17, 2021",26,46083,2021-03-17
4202,Sold,0x033ee7,0x886bdd,"6.49Ξ ($10,757)","Feb 08, 2021",6.49,10757,2021-02-08
4202,Sold,NeonNFT,0x033ee7,2.45Ξ ($848),"Sep 24, 2020",2.45,848,2020-09-24
4202,Sold,Pranksy,NeonNFT,2.19Ξ ($757),"Sep 24, 2020",2.19,757,2020-09-24
4202,Sold,Hemba,Pranksy,1.80Ξ ($613),"Sep 22, 2020",1.8,613,2020-09-22
4203,Sold,Punkofth…,0x2478c4,0.50Ξ ($108),"Jul 21, 2017",0.5,108,2017-07-21
4204,Sold,10288454,16250839,"24.50Ξ ($42,769)","Mar 12, 2021",24.5,42769,2021-03-12
4204,Sold,1700403,10288454,"15Ξ ($30,086)","Feb 20, 2021",15,30086,2021-02-20
4205,Sold,Cyborg,0xc352b5,0.32Ξ ($62),"Jul 11, 2017",0.32,62,2017-07-11
4206,Sold,0x76555d,14947985,"26.50Ξ ($47,687)","Mar 15, 2021",26.5,47687,2021-03-15
4206,Sold,0xc272ed,7755101,"22Ξ ($38,897)","Mar 08, 2021",22,38897,2021-03-08
4208,Sold,CPyrc,0x3ee505,2.49Ξ ($861),"Sep 24, 2020",2.49,861,2020-09-24
4208,Sold,0x36adad,CPyrc,2.20Ξ ($720),"Sep 24, 2020",2.2,720,2020-09-24
4208,Sold,Pranksy,0x36adad,1.95Ξ ($720),"Sep 20, 2020",1.95,720,2020-09-20
4208,Sold,0x122491,Pranksy,1.75Ξ ($659),"Sep 14, 2020",1.75,659,2020-09-14
4208,Sold,Hemba,0x122491,1.55Ξ ($574),"Sep 10, 2020",1.55,574,2020-09-10
4209,Sold,0xbac42c,0x392d47,"24Ξ ($49,959)","Apr 09, 2021",24,49959,2021-04-09
4209,Sold,0x51357b,0xd35bd3,"3.75Ξ ($1,326)","Sep 26, 2020",3.75,1326,2020-09-26
4209,Sold,Hemba,0x51357b,1.25Ξ ($363),"Jul 25, 2020",1.25,363,2020-07-25
4210,Sold,0xa3cb30,MBK,"28.50Ξ ($52,905)","Mar 14, 2021",28.5,52905,2021-03-14
4211,Sold,0xc352b5,13794879,1.30Ξ ($202),"Jul 16, 2017",1.3,202,2017-07-16
4214,Sold,5734076,3162760,"18.50Ξ ($33,580)","Feb 13, 2021",18.5,33580,2021-02-13
4215,Sold,0x8bb4f3,0xadc229,"9.50Ξ ($13,133)","Jan 30, 2021",9.5,13133,2021-01-30
4216,Sold,CPyrc,223332,"4.75Ξ ($1,776)","Oct 12, 2020",4.75,1776,2020-10-12
4216,Sold,Kcirtapc…,CPyrc,"5.70Ξ ($1,980)","Oct 03, 2020",5.7,1980,2020-10-03
4216,Sold,Hemba,Kcirtapc…,1.45Ξ ($555),"Sep 14, 2020",1.45,555,2020-09-14
4217,Sold,12322844,5772875,0.30Ξ ($58),"Jul 19, 2017",0.3,58,2017-07-19
4218,Sold,0x6611fe,5966219,0.35Ξ ($113),"Aug 21, 2017",0.35,113,2017-08-21
4219,Sold,0x561786,0x56fc4b,"21.80Ξ ($37,237)","Feb 22, 2021",21.8,37237,2021-02-22
4219,Sold,0x1a96af,azkaban,0.51Ξ ($99),"Apr 26, 2020",0.51,99,2020-04-26
4222,Sold,0x1da533,0x3e17fa,"60Ξ ($114,131)","Feb 18, 2021",60,114131,2021-02-18
4222,Sold,Thing,DANNY,"18.79Ξ ($6,371)","Oct 07, 2020",18.79,6371,2020-10-07
4222,Sold,0xa3cb30,Thing,"14.50Ξ ($4,913)","Oct 07, 2020",14.5,4913,2020-10-07
4223,Sold,0x13816f,0xca65d0,"23.50Ξ ($45,915)","Feb 21, 2021",23.5,45915,2021-02-21
4223,Sold,Party,0x13816f,"5.03Ξ ($1,892)","Oct 10, 2020",5.03,1892,2020-10-10
4223,Sold,EliteCat…,Party,"5.75Ξ ($2,070)","Oct 09, 2020",5.75,2070,2020-10-09
4223,Sold,0x470e9b,GoWest23,0.50Ξ ($87),"May 06, 2019",0.5,87,2019-05-06
4224,Sold,point-gr…,valko.et…,"21.49Ξ ($45,611)","Apr 06, 2021",21.49,45611,2021-04-06
4224,Sold,0xa3cb30,point-gr…,"19.50Ξ ($35,949)","Mar 30, 2021",19.5,35949,2021-03-30
4225,Sold,0xe45df5,Kataster…,1.90Ξ ($430),"Feb 09, 2020",1.9,430,2020-02-09
4226,Sold,0x16d1e7,0xb10004,"34.99Ξ ($68,096)","Feb 21, 2021",34.99,68096,2021-02-21
4226,Sold,0x628101,0x16d1e7,"30Ξ ($57,192)","Feb 18, 2021",30,57192,2021-02-18
4226,Sold,0x8234be,coinduph…,0.10Ξ ($50),"Apr 17, 2018",0.1,50,2018-04-17
4227,Sold,MT1000,tonyherr…,"4.90Ξ ($5,982)","Jan 21, 2021",4.9,5982,2021-01-21
4227,Sold,evkort,MT1000,"3.99Ξ ($4,892)","Jan 18, 2021",3.99,4892,2021-01-18
4227,Sold,0xaae8c5,evkort,"4.59Ξ ($5,840)","Jan 16, 2021",4.59,5840,2021-01-16
4227,Sold,0x2fdacd,0xaae8c5,"4.30Ξ ($5,208)","Jan 14, 2021",4.3,5208,2021-01-14
4228,Sold,Deeze,0xcc47fc,"35Ξ ($54,289)","Mar 03, 2021",35,54289,2021-03-03
4228,Sold,0x023b91,Deeze,"32.50Ξ ($47,982)","Mar 02, 2021",32.5,47982,2021-03-02
4228,Sold,0x7a8266,0x023b91,"20Ξ ($36,401)","Feb 17, 2021",20,36401,2021-02-17
4230,Sold,charley,0x67c443,"18.49Ξ ($36,273)","Feb 21, 2021",18.49,36273,2021-02-21
4230,Sold,0x2fdacd,0xaae8c5,"4.50Ξ ($5,519)","Jan 14, 2021",4.5,5519,2021-01-14
4231,Sold,0x610aec,NFTinTin,"45Ξ ($82,305)","Feb 22, 2021",45,82305,2021-02-22
4231,Sold,jmg,0x610aec,"39.99Ξ ($76,987)","Feb 18, 2021",39.99,76987,2021-02-18
4231,Sold,0x00d7c9,0x00bd3a,0.40Ξ ($95),"Jul 09, 2017",0.4,95,2017-07-09
4233,Sold,1633948,5786847,"24.50Ξ ($50,642)","Apr 08, 2021",24.5,50642,2021-04-08
4233,Sold,10734384,1633948,"19Ξ ($35,027)","Mar 30, 2021",19,35027,2021-03-30
4234,Sold,10734384,12932615,"34.99Ξ ($63,657)","Mar 17, 2021",34.99,63657,2021-03-17
4236,Sold,natealex,0x3efe8b,"51.69Ξ ($74,853)","Feb 27, 2021",51.69,74853,2021-02-27
4236,Sold,0x577ebc,natealex,"45Ξ ($88,781)","Feb 21, 2021",45,88781,2021-02-21
4237,Sold,Pranksy,0xb86a55,"55Ξ ($74,836)","Feb 28, 2021",55,74836,2021-02-28
4237,Sold,0xdbc416,Pranksy,"30Ξ ($42,443)","Feb 02, 2021",30,42443,2021-02-02
4237,Sold,tonyherr…,0xdbc416,"13.20Ξ ($15,229)","Jan 14, 2021",13.2,15229,2021-01-14
4238,Sold,0x3a4930,0xcd2c66,1Ξ ($238),"Jul 14, 2020",1,238,2020-07-14
4238,Sold,shilpixe…,0x3a4930,1Ξ ($207),"May 24, 2020",1,207,2020-05-24
4239,Sold,0x58164b,0xa80be8…,0.07Ξ ($52),"May 06, 2018",0.07,52,2018-05-06
4240,Sold,VonMises,DANNY,"12Ξ ($4,370)","Sep 11, 2020",12,4370,2020-09-11
4240,Sold,0x4c1bd9…,VonMises,"5Ξ ($1,197)","Jul 15, 2020",5,1197,2020-07-15
4240,Sold,shilpixe…,0x4c1bd9…,1Ξ ($250),"May 24, 2019",1,250,2019-05-24
4241,Sold,0x691b87,0xdb1a68,"27.50Ξ ($48,443)","Mar 12, 2021",27.5,48443,2021-03-12
4241,Sold,0x77a1a2,0x691b87,"22Ξ ($32,799)","Mar 05, 2021",22,32799,2021-03-05
4241,Sold,gaus,0x77a1a2,"21Ξ ($30,946)","Mar 05, 2021",21,30946,2021-03-05
4241,Sold,Michel_M…,0x177491,"3.35Ξ ($1,203)","Sep 28, 2020",3.35,1203,2020-09-28
4241,Sold,Pranksy,Michel_M…,"2.99Ξ ($1,055)","Sep 27, 2020",2.99,1055,2020-09-27
4241,Sold,0x5aaeb9,Pranksy,2.29Ξ ($792),"Sep 24, 2020",2.29,792,2020-09-24
4241,Sold,Pranksy,0x5aaeb9,2.19Ξ ($757),"Sep 24, 2020",2.19,757,2020-09-24
4241,Sold,Dude_Nak…,Pranksy,1.79Ξ ($609),"Sep 22, 2020",1.79,609,2020-09-22
4241,Sold,Fearless…,Dude_Nak…,0.50Ξ ($59),"Mar 13, 2020",0.5,59,2020-03-13
4241,Sold,shilpixe…,Fearless…,0.33Ξ ($39),"Jan 24, 2019",0.33,39,2019-01-24
4243,Sold,shilpixe…,VonMises,1Ξ ($197),"Apr 29, 2020",1,197,2020-04-29
4244,Sold,Hemba,TokenAng…,1.00Ξ ($204),"May 22, 2020",1,204,2020-05-22
4246,Sold,MrTpunks,0x0b6e06,"75Ξ ($154,790)","Apr 08, 2021",75,154790,2021-04-08
4246,Sold,shilpixe…,MrTpunks…,"7.99Ξ ($2,814)","Sep 26, 2020",7.99,2814,2020-09-26
4248,Sold,13772424,4790367,"22Ξ ($29,929)","Feb 28, 2021",22,29929,2021-02-28
4248,Sold,8702240,13772424,"24Ξ ($34,859)","Feb 23, 2021",24,34859,2021-02-23
4248,Sold,10937065,8702240,"17.90Ξ ($35,315)","Feb 21, 2021",17.9,35315,2021-02-21
4249,Sold,14966261,12800693,0.55Ξ ($48),"Dec 13, 2018",0.55,48,2018-12-13
4252,Sold,0x84c920,0x6fcade,"16Ξ ($29,375)","Mar 10, 2021",16,29375,2021-03-10
4252,Sold,0xbae25a,0x84c920,"17.79Ξ ($29,553)","Mar 07, 2021",17.79,29553,2021-03-07
4252,Sold,0x577ebc,0xbae25a,"8.10Ξ ($14,605)","Feb 16, 2021",8.1,14605,2021-02-16
4253,Sold,0xa5c80b,0x3ff814,"16Ξ ($29,636)","Feb 17, 2021",16,29636,2021-02-17
4253,Sold,0xff40d2,0xa5c80b,"5.65Ξ ($4,121)","Dec 29, 2020",5.65,4121,2020-12-29
4253,Sold,0x4fa27c,0xff40d2,"4.85Ξ ($1,878)","Oct 31, 2020",4.85,1878,2020-10-31
4253,Sold,0xb60df4,0x4fa27c,"5.85Ξ ($2,397)","Oct 23, 2020",5.85,2397,2020-10-23
4253,Sold,MrTpunks…,0xb60df4,"5.60Ξ ($1,937)","Oct 03, 2020",5.6,1937,2020-10-03
4253,Sold,VonMises,MrTpunks…,"2.99Ξ ($1,034)","Sep 24, 2020",2.99,1034,2020-09-24
4253,Sold,BitcoinG…,VonMises,1.80Ξ ($674),"Sep 14, 2020",1.8,674,2020-09-14
4253,Sold,Dude_Nak…,BitcoinG…,1.49Ξ ($298),"May 22, 2020",1.49,298,2020-05-22
4253,Sold,Hemba,Dude_Nak…,0.70Ξ ($83),"Mar 13, 2020",0.7,83,2020-03-13
4256,Sold,0xc69ae4,0x7a3960,"6.31Ξ ($2,214)","Oct 05, 2020",6.31,2214,2020-10-05
4256,Sold,Hemba,0xc69ae4,1.30Ξ ($260),"May 26, 2020",1.3,260,2020-05-26
4257,Sold,Hex,0xdbf584,"10.50Ξ ($16,216)","Feb 02, 2021",10.5,16216,2021-02-02
4257,Sold,0xde0193,Hex,"4Ξ ($2,931)","Dec 31, 2020",4,2931,2020-12-31
4259,Sold,0x0a4eaf…,sov,0.67Ξ ($136),"Jul 25, 2017",0.67,136,2017-07-25
4261,Sold,0xce6969,0x487249,"36Ξ ($58,238)","Feb 25, 2021",36,58238,2021-02-25
4261,Sold,niwin,0xce6969,"21Ξ ($41,177)","Feb 21, 2021",21,41177,2021-02-21
4261,Sold,RayoVac,niwin,"7.85Ξ ($13,764)","Feb 09, 2021",7.85,13764,2021-02-09
4261,Sold,2pac,0xbe7516,"5.50Ξ ($3,362)","Dec 23, 2020",5.5,3362,2020-12-23
4261,Sold,TweetyPi…,2pac,"3.20Ξ ($1,957)","Dec 22, 2020",3.2,1957,2020-12-22
4261,Sold,2pac,TweetyPi…,"2.40Ξ ($1,404)","Dec 14, 2020",2.4,1404,2020-12-14
4261,Sold,Blacksta…,0x257e2b,"5.50Ξ ($2,248)","Oct 25, 2020",5.5,2248,2020-10-25
4261,Sold,Pranksy,Blacksta…,2.49Ξ ($844),"Sep 23, 2020",2.49,844,2020-09-23
4261,Sold,GoWest23,evkort,"3.25Ξ ($1,197)","Sep 15, 2020",3.25,1197,2020-09-15
4261,Sold,Pranksy,GoWest23,0.65Ξ ($87),"Jan 04, 2020",0.65,87,2020-01-04
4261,Sold,0x00d7c9,Pranksy,0.25Ξ ($45),"Sep 02, 2019",0.25,45,2019-09-02
4262,Sold,natealex,0x9fdaaf,"3.25Ξ ($1,620)","Nov 26, 2020",3.25,1620,2020-11-26
4262,Sold,0x1a96af,natealex,1.31Ξ ($267),"May 27, 2020",1.31,267,2020-05-27
4264,Sold,0xa7eba7,15162117,"99.90Ξ ($180,948)","Mar 17, 2021",99.9,180948,2021-03-17
4265,Sold,shilpixe…,0x51636d,"25Ξ ($44,471)","Mar 11, 2021",25,44471,2021-03-11
4265,Sold,0x5fd36a,shilpixe…,"22.80Ξ ($38,424)","Feb 23, 2021",22.8,38424,2021-02-23
4265,Sold,Carlini8,0x5fd36a,"19.99Ξ ($38,111)","Feb 21, 2021",19.99,38111,2021-02-21
4265,Sold,0x99b884,Carlini8,"12.50Ξ ($23,070)","Feb 17, 2021",12.5,23070,2021-02-17
4270,Sold,0x387405,393680,"28Ξ ($42,948)","Mar 05, 2021",28,42948,2021-03-05
4271,Sold,7293485,12502685,"36.36Ξ ($75,042)","Apr 08, 2021",36.36,75042,2021-04-08
4274,Sold,16525921,15340056,"22Ξ ($39,760)","Mar 12, 2021",22,39760,2021-03-12
4274,Sold,7293485,9935372,"8.10Ξ ($14,720)","Feb 13, 2021",8.1,14720,2021-02-13
4277,Sold,Hemba,0x2db1c4,0.48Ξ ($85),"Nov 18, 2018",0.48,85,2018-11-18
4278,Sold,ross_VRO…,0x007eb9,"13.12Ξ ($23,729)","Feb 14, 2021",13.12,23729,2021-02-14
4278,Sold,Pranksy,ross_VRO…,1.49Ξ ($300),"May 16, 2020",1.49,300,2020-05-16
4278,Sold,0x00d7c9,Pranksy,0.25Ξ ($45),"Sep 02, 2019",0.25,45,2019-09-02
4280,Sold,7293485,4865599,"14.99Ξ ($29,000)","Feb 18, 2021",14.99,29000,2021-02-18
4282,Sold,6502139,6811088,"23Ξ ($47,541)","Apr 08, 2021",23,47541,2021-04-08
4282,Sold,8844177,6502139,"19Ξ ($37,316)","Apr 07, 2021",19,37316,2021-04-07
4282,Sold,7293485,8844177,"26.50Ξ ($47,727)","Mar 15, 2021",26.5,47727,2021-03-15
4283,Sold,0x6f4a2d,nickemmo…,"50Ξ ($78,410)","Mar 02, 2021",50,78410,2021-03-02
4287,Sold,7293485,3333383,"21Ξ ($40,289)","Feb 22, 2021",21,40289,2021-02-22
4289,Sold,7293485,12502685,"46Ξ ($95,471)","Apr 09, 2021",46,95471,2021-04-09
4291,Sold,7293485,3731935,"23.50Ξ ($33,338)","Feb 23, 2021",23.5,33338,2021-02-23
4293,Sold,wookie.e…,0x655d17,"23Ξ ($41,696)","Mar 12, 2021",23,41696,2021-03-12
4293,Sold,aurelia-…,wookie.e…,"21Ξ ($38,139)","Mar 12, 2021",21,38139,2021-03-12
4293,Sold,0x6f4a2d,aurelia.…,"21Ξ ($37,407)","Mar 11, 2021",21,37407,2021-03-11
4294,Sold,7293485,15881823,"18.05Ξ ($32,178)","Feb 17, 2021",18.05,32178,2021-02-17
4295,Sold,alphab.e…,0xe38171,"29.40Ξ ($46,494)","Mar 25, 2021",29.4,46494,2021-03-25
4295,Sold,0x13816f,alphab.e…,"25.88Ξ ($48,278)","Mar 14, 2021",25.88,48278,2021-03-14
4295,Sold,0xc36817,0x13816f,"17.49Ξ ($29,312)","Mar 07, 2021",17.49,29312,2021-03-07
4295,Sold,0x6f4a2d,0xc36817,"6.14Ξ ($10,587)","Feb 11, 2021",6.14,10587,2021-02-11
4297,Sold,7293485,Hans,"8.20Ξ ($14,941)","Feb 14, 2021",8.2,14941,2021-02-14
4299,Sold,7293485,942439,"15Ξ ($29,594)","Feb 21, 2021",15,29594,2021-02-21
4300,Sold,0x5330be,mbeck.et…,"38Ξ ($78,753)","Apr 09, 2021",38,78753,2021-04-09
4300,Sold,0x6f4a2d,0x5330be,"33Ξ ($64,578)","Feb 21, 2021",33,64578,2021-02-21
4303,Sold,0xa39371,0x1b32fc,"20.10Ξ ($33,786)","Mar 08, 2021",20.1,33786,2021-03-08
4303,Sold,MT1000,0xa39371,"6.20Ξ ($11,181)","Feb 13, 2021",6.2,11181,2021-02-13
4303,Sold,0x4ad368,MT1000,"5Ξ ($6,386)","Jan 27, 2021",5,6386,2021-01-27
4303,Sold,0xb44969,0x4ad368,"4.20Ξ ($5,580)","Jan 26, 2021",4.2,5580,2021-01-26
4303,Sold,0xdf2e9f,0x93db36,2Ξ ($762),"Sep 20, 2020",2,762,2020-09-20
4303,Sold,Hemba,0xdf2e9f,0.45Ξ ($82),"Sep 13, 2019",0.45,82,2019-09-13
4305,Sold,Cyborg,0x7a341c,0.20Ξ ($57),"Jul 02, 2017",0.2,57,2017-07-02
4306,Sold,niwin,0xffe678,"19.98Ξ ($41,379)","Apr 09, 2021",19.98,41379,2021-04-09
4306,Sold,0xe1f1c9,niwin,"18Ξ ($31,577)","Mar 16, 2021",18,31577,2021-03-16
4306,Sold,Pranksy,csteam,0.90Ξ ($197),"Feb 11, 2020",0.9,197,2020-02-11
4306,Sold,Hemba,Pranksy,0.48Ξ ($65),"Jan 04, 2020",0.48,65,2020-01-04
4307,Sold,Cyborg,0x7760e0,0.20Ξ ($57),"Jul 02, 2017",0.2,57,2017-07-02
4310,Sold,Hemba,cpu1,1.10Ξ ($234),"May 18, 2020",1.1,234,2020-05-18
4311,Sold,Sylveste…,0x05e06f,1.85Ξ ($630),"Sep 22, 2020",1.85,630,2020-09-22
4311,Sold,Hemba,Sylveste…,1.40Ξ ($503),"Sep 13, 2020",1.4,503,2020-09-13
4312,Sold,0x4e23e9,0x0e9aed,"15Ξ ($31,134)","Apr 04, 2021",15,31134,2021-04-04
4312,Sold,0xef784c,0x4e23e9,"27.49Ξ ($53,064)","Mar 14, 2021",27.49,53064,2021-03-14
4312,Sold,0x8f6b1e,0xef784c,"18.99Ξ ($34,865)","Mar 10, 2021",18.99,34865,2021-03-10
4312,Sold,0xfab9b8,0xd030b1,"6.60Ξ ($11,572)","Feb 09, 2021",6.6,11572,2021-02-09
4312,Sold,Pranksy,0x2db1c4,0.50Ξ ($63),"Dec 26, 2019",0.5,63,2019-12-26
4312,Sold,0x00d7c9,Pranksy,0.25Ξ ($45),"Sep 02, 2019",0.25,45,2019-09-02
4313,Sold,0xba89f0,0xca7ae4,"35Ξ ($73,533)","Apr 06, 2021",35,73533,2021-04-06
4313,Sold,Pranksy,0xba89f0,"30.70Ξ ($47,876)","Mar 04, 2021",30.7,47876,2021-03-04
4313,Sold,0x577ebc,Pranksy,"11.25Ξ ($18,093)","Feb 04, 2021",11.25,18093,2021-02-04
4315,Sold,shilpixe…,snowfro,0.28Ξ ($28),"Dec 05, 2018",0.28,28,2018-12-05
4317,Sold,12322844,5772875,0.30Ξ ($58),"Jul 19, 2017",0.3,58,2017-07-19
4318,Sold,Hemba,Kataster…,0.51Ξ ($68),"Dec 22, 2019",0.51,68,2019-12-22
4320,Sold,CPyrc,TokenAng…,"35Ξ ($63,092)","Feb 22, 2021",35,63092,2021-02-22
4320,Sold,0x0873fc,CPyrc,"26Ξ ($48,777)","Feb 22, 2021",26,48777,2021-02-22
4322,Sold,11976269,10898397,0.09Ξ ($38),"Dec 06, 2017",0.09,38,2017-12-06
4325,Sold,10734384,11268359,"16Ξ ($31,720)","Apr 08, 2021",16,31720,2021-04-08
4326,Sold,TJ2010,0x87b740,"6.66Ξ ($11,669)","Feb 11, 2021",6.66,11669,2021-02-11
4326,Sold,cryptoke…,TJ2010,"3.62Ξ ($1,884)","Nov 26, 2020",3.62,1884,2020-11-26
4326,Sold,0x9ce03d,cryptoke…,"4.70Ξ ($1,790)","Oct 14, 2020",4.7,1790,2020-10-14
4326,Sold,Novo311,0x9ce03d,"4.39Ξ ($1,633)","Oct 11, 2020",4.39,1633,2020-10-11
4326,Sold,NeonNFT,Novo311,"4.19Ξ ($1,421)","Oct 08, 2020",4.19,1421,2020-10-08
4326,Sold,KittyGr_…,NeonNFT,"4Ξ ($1,414)","Oct 04, 2020",4,1414,2020-10-04
4326,Sold,0x8234be,KittyGr_…,0.07Ξ ($42),"Jun 07, 2018",0.07,42,2018-06-07
4327,Sold,0xae4d83,0x6130d3,"13.50Ξ ($25,798)","Feb 19, 2021",13.5,25798,2021-02-19
4327,Sold,dereklau…,0xae4d83,"9Ξ ($16,282)","Feb 14, 2021",9,16282,2021-02-14
4327,Sold,0x517fe8,dereklau…,"5.50Ξ ($6,775)","Jan 24, 2021",5.5,6775,2021-01-24
4327,Sold,0xf1b658,0x517fe8,"4.40Ξ ($5,424)","Jan 16, 2021",4.4,5424,2021-01-16
4327,Sold,0x2fdacd,0x5b331e,"4.31Ξ ($5,286)","Jan 14, 2021",4.31,5286,2021-01-14
4328,Sold,1205785,2233870,0.10Ξ ($20),"Jul 14, 2017",0.1,20,2017-07-14
4329,Sold,0x27c79a,0x98c488,0.74Ξ ($149),"May 17, 2020",0.74,149,2020-05-17
4329,Sold,Goop,0x27c79a,0.57Ξ ($92),"Jan 16, 2020",0.57,92,2020-01-16
4329,Sold,NFTinTin,Goop,0.54Ξ ($75),"Jan 08, 2020",0.54,75,2020-01-08
4329,Sold,Goop,NFTinTin,0.44Ξ ($59),"Jan 04, 2020",0.44,59,2020-01-04
4329,Sold,jmg,Goop,0.39Ξ ($53),"Dec 30, 2019",0.39,53,2019-12-30
4329,Sold,0x126619,0x00bd3a,0.03Ξ ($7),"Jul 24, 2017",0.03,7,2017-07-24
4330,Sold,0xc2ac3c,CBobRobi…,0.15Ξ ($34),"Sep 20, 2018",0.15,34,2018-09-20
4330,Sold,0x126619,0xb11d6a,0.10Ξ ($31),"Aug 11, 2017",0.1,31,2017-08-11
4331,Sold,11844417,426773,"27.99Ξ ($49,155)","Mar 13, 2021",27.99,49155,2021-03-13
4331,Sold,146321,11844417,"19.50Ξ ($28,789)","Mar 02, 2021",19.5,28789,2021-03-02
4331,Sold,15861039,146321,"13.80Ξ ($24,980)","Feb 17, 2021",13.8,24980,2021-02-17
4331,Sold,10734384,15861039,"6.90Ξ ($12,076)","Feb 09, 2021",6.9,12076,2021-02-09
4333,Sold,0xef768e,5333869,"120Ξ ($213,462)","Mar 11, 2021",120,213462,2021-03-11
4334,Sold,DA,d3d3.eth,"7Ξ ($10,922)","Feb 03, 2021",7,10922,2021-02-03
4334,Sold,0x00d7c9,KittyGr_…,0.10Ξ ($60),"Jun 08, 2018",0.1,60,2018-06-08
4337,Sold,8533182,16155949,0.16Ξ ($130),"Feb 11, 2018",0.16,130,2018-02-11
4338,Sold,0x44d93e,0xef784c,"27.55Ξ ($49,791)","Mar 12, 2021",27.55,49791,2021-03-12
4338,Sold,TokenAng…,0x44d93e,"26Ξ ($49,837)","Feb 22, 2021",26,49837,2021-02-22
4338,Sold,shilpixe…,TokenAng…,0.49Ξ ($129),"Jun 14, 2019",0.49,129,2019-06-14
4340,Sold,Michel_M…,snax,"3.05Ξ ($1,174)","Sep 18, 2020",3.05,1174,2020-09-18
4340,Sold,Alex3422,Michel_M…,1.99Ξ ($479),"Jul 10, 2020",1.99,479,2020-07-10
4340,Sold,TweetyPi…,Alex3422,0.82Ξ ($117),"Jan 11, 2020",0.82,117,2020-01-11
4340,Sold,Hemba,TweetyPi…,0.55Ξ ($73),"Jan 04, 2020",0.55,73,2020-01-04
4342,Sold,2870205,Tschuuul…,0.50Ξ ($91),"Apr 08, 2019",0.5,91,2019-04-08
4343,Sold,16058782,15423625,0.40Ξ ($274),"Dec 15, 2017",0.4,274,2017-12-15
4343,Sold,1205785,10528156,0.09Ξ ($18),"Jul 14, 2017",0.09,18,2017-07-14
4346,Sold,0xc352b5,16740588,"50Ξ ($101,659)","Apr 03, 2021",50,101659,2021-04-03
4347,Sold,0xc352b5,11644366,"45Ξ ($87,922)","Feb 21, 2021",45,87922,2021-02-21
4348,Sold,0xa3cb30,0x62bdc6,"15Ξ ($27,797)","Mar 30, 2021",15,27797,2021-03-30
4352,Sold,10074244,TheNat,"6.20Ξ ($10,131)","Feb 03, 2021",6.2,10131,2021-02-03
4358,Sold,9119710,7435267,0.28Ξ ($97),"Aug 28, 2017",0.28,97,2017-08-28
4362,Sold,5966219,16745492,0.47Ξ ($126),"Jul 04, 2017",0.47,126,2017-07-04
4366,Sold,9119710,7823584,0.28Ξ ($90),"Aug 21, 2017",0.28,90,2017-08-21
4379,Sold,robers,0x36fbd8,"90Ξ ($172,621)","Feb 22, 2021",90,172621,2021-02-22
4379,Sold,0x4dcaf3,robers,1.75Ξ ($256),"Feb 21, 2019",1.75,256,2019-02-21
4379,Sold,0x99b884,0x4dcaf3,1Ξ ($286),"Jun 27, 2017",1,286,2017-06-27
4383,Sold,0x16d1e7,3711329,"30Ξ ($49,283)","Mar 07, 2021",30,49283,2021-03-07
4383,Sold,0xa3cb30,1495527,"20Ξ ($36,372)","Feb 14, 2021",20,36372,2021-02-14
4387,Sold,55241,7435267,0.05Ξ ($26),"May 28, 2018",0.05,26,2018-05-28
4389,Sold,0x7a612b,xaix.eth,"45.99Ξ ($94,856)","Apr 02, 2021",45.99,94856,2021-04-02
4389,Sold,0xa3cb30,0x7a612b,"49.99Ξ ($89,380)","Mar 22, 2021",49.99,89380,2021-03-22
4390,Sold,shilpixe…,0x3ff68e,"22Ξ ($42,984)","Feb 21, 2021",22,42984,2021-02-21
4391,Sold,Carlini8,gaus,2.50Ξ ($873),"Sep 25, 2020",2.5,873,2020-09-25
4391,Sold,Hemba,Carlini8,1.40Ξ ($526),"Sep 14, 2020",1.4,526,2020-09-14
4392,Sold,Hemba,snowfro,0.14Ξ ($15),"Nov 27, 2018",0.14,15,2018-11-27
4393,Sold,0xef768e,TokenAng…,"50Ξ ($81,292)","Feb 25, 2021",50,81292,2021-02-25
4395,Sold,na,0x185703,2.30Ξ ($522),"Jun 28, 2020",2.3,522,2020-06-28
4395,Sold,Cyborg,na,0.37Ξ ($58),"Jul 16, 2017",0.37,58,2017-07-16
4399,Sold,Hemba,0xf40b3d,2.50Ξ ($859),"Sep 24, 2020",2.5,859,2020-09-24
4400,Sold,0x585755,cryptopu…,0.59Ξ ($111),"Nov 13, 2019",0.59,111,2019-11-13
4400,Sold,jmg,0x585755,0.19Ξ ($95),"Jul 17, 2018",0.19,95,2018-07-17
4400,Sold,0x58164b,jmg,0.06Ξ ($32),"Apr 18, 2018",0.06,32,2018-04-18
4401,Sold,55241,3035547,0.75Ξ ($143),"Aug 22, 2019",0.75,143,2019-08-22
4402,Sold,EliteCat…,Zonked,"16Ξ ($27,264)","Mar 28, 2021",16,27264,2021-03-28
4402,Sold,0x788ff8,GoWest23,0.45Ξ ($78),"May 06, 2019",0.45,78,2019-05-06
4402,Sold,pixelpet…,0x788ff8,0.23Ξ ($120),"Mar 25, 2018",0.23,120,2018-03-25
4402,Sold,0x470e9b,pixelpet…,0.11Ξ ($103),"Feb 16, 2018",0.11,103,2018-02-16
4405,Sold,0x470e9b,BitcoinG…,4Ξ ($800),"May 22, 2020",4,800,2020-05-22
4406,Sold,Pranksy,0x491be7,"5.49Ξ ($1,955)","Sep 29, 2020",5.49,1955,2020-09-29
4406,Sold,0xef764b…,Pranksy,"3.99Ξ ($1,427)","Sep 28, 2020",3.99,1427,2020-09-28
4406,Sold,Carlini8,0xef764b…,2.50Ξ ($873),"Sep 25, 2020",2.5,873,2020-09-25
4406,Sold,Hemba,Carlini8,1.55Ξ ($583),"Sep 14, 2020",1.55,583,2020-09-14
4408,Sold,755965,16037029,"40Ξ ($74,078)","Mar 20, 2021",40,74078,2021-03-20
4410,Sold,15840856,553331,"11.50Ξ ($13,777)","Jan 15, 2021",11.5,13777,2021-01-15
4410,Sold,3136205,5976862,"11Ξ ($11,810)","Jan 13, 2021",11,11810,2021-01-13
4413,Sold,12743405,3543730,"24Ξ ($38,068)","Feb 25, 2021",24,38068,2021-02-25
4414,Sold,jmg,0xad614f,0.38Ξ ($65),"Apr 22, 2019",0.38,65,2019-04-22
4414,Sold,0x00d7c9,jmg,0.10Ξ ($30),"Oct 27, 2017",0.1,30,2017-10-27
4416,Sold,0x1f8add,Theodora,1.10Ξ ($371),"Jul 30, 2020",1.1,371,2020-07-30
4416,Sold,Hemba,0x1f8add,1.05Ξ ($224),"May 20, 2020",1.05,224,2020-05-20
4417,Sold,48543,10135275,"13.50Ξ ($11,551)","Mar 03, 2018",13.5,11551,2018-03-03
4419,Sold,0x_NFT,WuTangCl…,"4.25Ξ ($1,491)","Oct 08, 2020",4.25,1491,2020-10-08
4419,Sold,MrNFT,0x_NFT,"2.98Ξ ($1,027)","Sep 25, 2020",2.98,1027,2020-09-25
4419,Sold,Pranksy,MrNFT,2.75Ξ ($949),"Sep 25, 2020",2.75,949,2020-09-25
4419,Sold,Hemba,Pranksy,2.30Ξ ($796),"Sep 24, 2020",2.3,796,2020-09-24
4420,Sold,EliteCat…,0x20af8c,"31.49Ξ ($49,274)","Feb 23, 2021",31.49,49274,2021-02-23
4420,Sold,0xe45df5,GoWest23,0.84Ξ ($116),"Jan 05, 2020",0.84,116,2020-01-05
4422,Sold,Hemba,0x0601d0,0.70Ξ ($89),"Jan 02, 2020",0.7,89,2020-01-02
4423,Sold,Hemba,0x6f0e05,1Ξ ($390),"Aug 22, 2020",1,390,2020-08-22
4425,Sold,Hemba,0x5b098b,0.14Ξ ($32),"Oct 08, 2018",0.14,32,2018-10-08
4426,Sold,gaus,zeroexze…,"22Ξ ($33,616)","Mar 06, 2021",22,33616,2021-03-06
4426,Sold,0xc9ab58,charley,"4.44Ξ ($5,449)","Jan 15, 2021",4.44,5449,2021-01-15
4426,Sold,0x2fdacd,0xc9ab58,"4.40Ξ ($5,329)","Jan 14, 2021",4.4,5329,2021-01-14
4427,Sold,0x3f1724,0xe12e1f,0.65Ξ ($103),"Apr 10, 2020",0.65,103,2020-04-10
4427,Sold,HEDBIG,0x3f1724,0.50Ξ ($125),"Feb 16, 2020",0.5,125,2020-02-16
4427,Sold,0x8234be,HEDBIG,0.09Ξ ($49),"Mar 17, 2018",0.09,49,2018-03-17
4428,Sold,55241,Mr_0x,0.70Ξ ($119),"Apr 23, 2019",0.7,119,2019-04-23
4432,Sold,0xa3cb30,BlackKet…,"18Ξ ($33,057)","Mar 30, 2021",18,33057,2021-03-30
4433,Sold,0x13816f,0x577ebc,"9.88Ξ ($18,120)","Feb 17, 2021",9.88,18120,2021-02-17
4433,Sold,0xb40dac,0x13816f,"3.50Ξ ($1,258)","Sep 28, 2020",3.5,1258,2020-09-28
4433,Sold,0x5e7ee9,0xb40dac,"3.28Ξ ($1,155)","Sep 27, 2020",3.28,1155,2020-09-27
4433,Sold,0x86126b,0x5e7ee9,"3Ξ ($1,023)","Sep 25, 2020",3,1023,2020-09-25
4433,Sold,Hemba,0x86126b,2.50Ξ ($865),"Sep 24, 2020",2.5,865,2020-09-24
4436,Sold,TokenAng…,0x2cc02b,"35Ξ ($75,463)","Apr 10, 2021",35,75463,2021-04-10
4436,Sold,0xca37d8,TokenAng…,"24Ξ ($46,199)","Feb 21, 2021",24,46199,2021-02-21
4436,Sold,0x73e788,0xca37d8,"13.90Ξ ($24,309)","Feb 16, 2021",13.9,24309,2021-02-16
4436,Sold,Zieg,0x73e788,0.16Ξ ($166),"Jan 19, 2018",0.16,166,2018-01-19
4436,Sold,0x126619,Zieg,0.12Ξ ($20),"Jul 15, 2017",0.12,20,2017-07-15
4441,Sold,shilpixe…,0xee996c,"125Ξ ($218,209)","Mar 12, 2021",125,218209,2021-03-12
4444,Sold,LeafyGre…,0x0e4437,"24Ξ ($39,813)","Feb 05, 2021",24,39813,2021-02-05
4444,Sold,0x3499ee,LeafyGre…,"11.44Ξ ($8,435)","Jan 01, 2021",11.44,8435,2021-01-01
4445,Sold,14966261,nifty_ma…,1.20Ξ ($212),"Jan 29, 2020",1.2,212,2020-01-29
4445,Sold,5966219,0xe45df5,0.35Ξ ($107),"Jun 24, 2017",0.35,107,2017-06-24
4446,Sold,5791640,digitalo…,"6.50Ξ ($4,741)","Dec 29, 2020",6.5,4741,2020-12-29
4447,Sold,12732368,12502685,"18Ξ ($37,332)","Apr 06, 2021",18,37332,2021-04-06
4447,Sold,7293485,12732368,"16Ξ ($31,146)","Feb 21, 2021",16,31146,2021-02-21
4452,Sold,0xbd9e32,0xd3e2e7,"8Ξ ($10,640)","Jan 29, 2021",8,10640,2021-01-29
4452,Sold,Carlini8,0xbd9e32,"7.50Ξ ($7,059)","Jan 03, 2021",7.5,7059,2021-01-03
4452,Sold,RayoVac,Carlini8,"5.70Ξ ($3,663)","Dec 26, 2020",5.7,3663,2020-12-26
4452,Sold,0x4b0162,RayoVac,"4.60Ξ ($2,056)","Nov 15, 2020",4.6,2056,2020-11-15
4454,Sold,0x20af8c,942439,"16.50Ξ ($32,553)","Feb 21, 2021",16.5,32553,2021-02-21
4454,Sold,0x6f4a2d,2142092,"14.50Ξ ($28,300)","Feb 21, 2021",14.5,28300,2021-02-21
4455,Sold,pelvis.e…,0x6130d3,"14.70Ξ ($28,092)","Feb 19, 2021",14.7,28092,2021-02-19
4455,Sold,0x241ec7,pelvis.e…,"7.84Ξ ($14,524)","Feb 13, 2021",7.84,14524,2021-02-13
4455,Sold,0x6f4a2d,0x241ec7,"6Ξ ($10,020)","Feb 06, 2021",6,10020,2021-02-06
4456,Sold,0x6f4a2d,337252,"75Ξ ($155,830)","Apr 08, 2021",75,155830,2021-04-08
4458,Sold,MadMax,0xb6681a,"8.75Ξ ($16,254)","Feb 13, 2021",8.75,16254,2021-02-13
4458,Sold,0x6f4a2d,MadMax,"6.50Ξ ($11,923)","Feb 12, 2021",6.5,11923,2021-02-12
4460,Sold,7293485,9569308,"25Ξ ($36,752)","Feb 26, 2021",25,36752,2021-02-26
4463,Sold,0xf4a775,6608994,"18Ξ ($32,988)","Mar 09, 2021",18,32988,2021-03-09
4463,Sold,0xd8e806,16033653,0.15Ξ ($70),"Dec 04, 2017",0.15,70,2017-12-04
4463,Sold,0xc00c2b,14215174,0.29Ξ ($66),"Jul 20, 2017",0.29,66,2017-07-20
4463,Sold,0x126619,12586027,0.20Ξ ($34),"Jul 15, 2017",0.2,34,2017-07-15
4466,Sold,7293485,11315722,"20Ξ ($38,371)","Feb 22, 2021",20,38371,2021-02-22
4467,Sold,Hemba,PB,1.45Ξ ($304),"May 17, 2020",1.45,304,2020-05-17
4468,Sold,55241,6689278,0.60Ξ ($145),"Jul 07, 2017",0.6,145,2017-07-07
4468,Sold,14966261,55241,0.20Ξ ($56),"Jun 25, 2017",0.2,56,2017-06-25
4468,Sold,15808747,14966261,0.10Ξ ($28),"Jun 25, 2017",0.1,28,2017-06-25
4470,Sold,psylo.et…,AZonneve…,1.38Ξ ($302),"May 29, 2020",1.38,302,2020-05-29
4470,Sold,Hemba,psylo.et…,1.50Ξ ($303),"May 27, 2020",1.5,303,2020-05-27
4471,Sold,7293485,14638710,"26Ξ ($46,052)","Mar 17, 2021",26,46052,2021-03-17
4474,Sold,7293485,13475271,"9.40Ξ ($16,950)","Feb 16, 2021",9.4,16950,2021-02-16
4475,Sold,Loopify,0xbbe846,"13.30Ξ ($25,437)","Feb 18, 2021",13.3,25437,2021-02-18
4475,Sold,0xbac42c,Loopify,"11Ξ ($20,302)","Feb 17, 2021",11,20302,2021-02-17
4475,Sold,0x033ee7,0xbac42c,"4.85Ξ ($6,411)","Jan 29, 2021",4.85,6411,2021-01-29
4475,Sold,0xe4c479,0x033ee7,"2.90Ξ ($1,031)","Sep 26, 2020",2.9,1031,2020-09-26
4475,Sold,Hemba,0xe4c479,"3Ξ ($1,051)","Sep 25, 2020",3,1051,2020-09-25
4476,Sold,Hemba,0x4710e3,0.42Ξ ($63),"Jan 08, 2019",0.42,63,2019-01-08
4477,Sold,Hemba,CryptoPa…,0.85Ξ ($365),"Aug 18, 2020",0.85,365,2020-08-18
4478,Sold,Hemba,TokenAng…,0.88Ξ ($144),"Jan 26, 2020",0.88,144,2020-01-26
4479,Sold,0x939183,0x6f1174,"20Ξ ($35,549)","Mar 19, 2021",20,35549,2021-03-19
4479,Sold,Pixls,0x939183,0.17Ξ ($17),"Dec 05, 2018",0.17,17,2018-12-05
4479,Sold,Hemba,Pixls,0.13Ξ ($26),"Oct 18, 2018",0.13,26,2018-10-18
4480,Sold,Hemba,0x9e199d,0.09Ξ ($84),"Feb 16, 2018",0.09,84,2018-02-16
4481,Sold,8350887,10361245,0.20Ξ ($246),"Jan 28, 2018",0.2,246,2018-01-28
4481,Sold,8588433,8350887,0.10Ξ ($69),"Dec 16, 2017",0.1,69,2017-12-16
4482,Sold,Hemba,0x9e199d,0.13Ξ ($25),"Oct 12, 2018",0.13,25,2018-10-12
4484,Sold,0x73e788,0xb74f01,"24.90Ξ ($50,392)","Feb 20, 2021",24.9,50392,2021-02-20
4484,Sold,Kittypad,0x73e788,"5.50Ξ ($9,054)","Feb 04, 2021",5.5,9054,2021-02-04
4484,Sold,ross_VRO…,Kittypad,0.43Ξ ($55),"Jan 02, 2020",0.43,55,2020-01-02
4484,Sold,PabloFM,ross_VRO…,0.29Ξ ($46),"Feb 23, 2019",0.29,46,2019-02-23
4484,Sold,Hemba,PabloFM,0.12Ξ ($24),"Oct 11, 2018",0.12,24,2018-10-11
4485,Sold,renaissa…,0xae7721,"32Ξ ($56,557)","Mar 29, 2021",32,56557,2021-03-29
4485,Sold,0xa3cb30,renaissa…,"27Ξ ($46,338)","Mar 28, 2021",27,46338,2021-03-28
4486,Sold,Kataster…,0x2978f0,"19.49Ξ ($42,117)","Apr 10, 2021",19.49,42117,2021-04-10
4486,Sold,Goop,Kataster…,0.37Ξ ($54),"Dec 10, 2019",0.37,54,2019-12-10
4486,Sold,PabloFM,Goop,0.33Ξ ($50),"Dec 08, 2019",0.33,50,2019-12-08
4486,Sold,Hemba,PabloFM,0.13Ξ ($25),"Oct 11, 2018",0.13,25,2018-10-11
4487,Sold,Hemba,snowfro,0.14Ξ ($32),"Oct 08, 2018",0.14,32,2018-10-08
4488,Sold,dabb1e,ross_VRO…,0.37Ξ ($89),"Jun 04, 2019",0.37,89,2019-06-04
4488,Sold,Hemba,0x95,0.14Ξ ($17),"Nov 28, 2018",0.14,17,2018-11-28
4489,Sold,Hemba,0xc352b5,0.14Ξ ($31),"Nov 07, 2018",0.14,31,2018-11-07
4490,Sold,Hemba,0x7db525,1.45Ξ ($342),"Jun 01, 2020",1.45,342,2020-06-01
4491,Sold,Cryptokk…,0xda202a,"22Ξ ($42,521)","Feb 21, 2021",22,42521,2021-02-21
4491,Sold,Hemba,Cryptokk…,0.40Ξ ($54),"Mar 02, 2019",0.4,54,2019-03-02
4493,Sold,0x033ee7,Zonked,"4.31Ξ ($5,834)","Jan 24, 2021",4.31,5834,2021-01-24
4493,Sold,NeonNFT,0x033ee7,"2.90Ξ ($1,031)","Sep 26, 2020",2.9,1031,2020-09-26
4493,Sold,0xe4c479,NeonNFT,2.50Ξ ($877),"Sep 26, 2020",2.5,877,2020-09-26
4493,Sold,Hemba,0xe4c479,2.30Ξ ($779),"Sep 24, 2020",2.3,779,2020-09-24
4494,Sold,0x61e7e7,0xfa1c0-…,0.95Ξ ($159),"Jan 20, 2020",0.95,159,2020-01-20
4494,Sold,Pranksy,0x581b59,0.42Ξ ($77),"Sep 13, 2019",0.42,77,2019-09-13
4494,Sold,0x00d7c9,Pranksy,0.25Ξ ($45),"Sep 02, 2019",0.25,45,2019-09-02
4495,Sold,Cyborg,0x3d9456,0.10Ξ ($83),"Feb 24, 2018",0.1,83,2018-02-24
4496,Sold,Carlini8,0xf40b3d,2.50Ξ ($859),"Sep 24, 2020",2.5,859,2020-09-24
4496,Sold,CPyrc,Carlini8,1.89Ξ ($712),"Sep 14, 2020",1.89,712,2020-09-14
4496,Sold,0x20e386,CPyrc,1.20Ξ ($465),"Sep 13, 2020",1.2,465,2020-09-13
4497,Sold,0x0e4437,0x51636d,"25Ξ ($39,392)","Mar 04, 2021",25,39392,2021-03-04
4497,Sold,0x8bb4f3,0x0e4437,"7Ξ ($11,964)","Feb 05, 2021",7,11964,2021-02-05
4497,Sold,Korniej,0x8bb4f3,"6Ξ ($7,563)","Jan 27, 2021",6,7563,2021-01-27
4497,Sold,kingskin…,Korniej,"5.50Ξ ($7,243)","Jan 27, 2021",5.5,7243,2021-01-27
4497,Sold,barthazi…,kingskin…,2.49Ξ ($914),"Sep 15, 2020",2.49,914,2020-09-15
4497,Sold,VonMises,barthazi…,2Ξ ($753),"Sep 15, 2020",2,753,2020-09-15
4497,Sold,Hemba,VonMises,1.35Ξ ($327),"Jun 06, 2020",1.35,327,2020-06-06
4499,Sold,Hemba,0x33f848,0.24Ξ ($49),"Oct 23, 2018",0.24,49,2018-10-23
4500,Sold,0x58164b,7435267,0.05Ξ ($56),"Jan 07, 2018",0.05,56,2018-01-07
4502,Sold,8533182,16233269,0.11Ξ ($72),"Dec 22, 2017",0.11,72,2017-12-22
4505,Sold,0x1d45f1,Hex,"5.20Ξ ($1,992)","Oct 13, 2020",5.2,1992,2020-10-13
4505,Sold,0x3ba9cd,0x1d45f1,"7Ξ ($2,483)","Sep 29, 2020",7,2483,2020-09-29
4505,Sold,Carlini8,0x3ba9cd,"4Ξ ($1,390)","Sep 24, 2020",4,1390,2020-09-24
4505,Sold,DANNY,Carlini8,2Ξ ($410),"May 22, 2020",2,410,2020-05-22
4505,Sold,Hemba,DANNY,1Ξ ($202),"May 14, 2020",1,202,2020-05-14
4507,Sold,0x19f233,14619803,"21Ξ ($32,198)","Feb 25, 2021",21,32198,2021-02-25
4508,Sold,12196282,12189147,"20Ξ ($34,796)","Feb 17, 2021",20,34796,2021-02-17
4509,Sold,0x5b098b,0x7a341c,0.18Ξ ($51),"Jun 30, 2017",0.18,51,2017-06-30
4509,Sold,Cyborg,0x5b098b,0.20Ξ ($61),"Jun 24, 2017",0.2,61,2017-06-24
4511,Sold,Michel_M…,0x0e6167,"17.50Ξ ($34,526)","Feb 21, 2021",17.5,34526,2021-02-21
4511,Sold,0x13816f,0xc9ab58,"6.66Ξ ($8,862)","Feb 01, 2021",6.66,8862,2021-02-01
4511,Sold,CPyrc,0x13816f,"5.65Ξ ($1,992)","Sep 29, 2020",5.65,1992,2020-09-29
4511,Sold,VonMises,CPyrc,"5.20Ξ ($1,882)","Sep 28, 2020",5.2,1882,2020-09-28
4511,Sold,Hemba,VonMises,0.66Ξ ($144),"Apr 30, 2020",0.66,144,2020-04-30
4512,Sold,0x5b331e,5642118,"4.69Ξ ($5,395)","Jan 15, 2021",4.69,5395,2021-01-15
4512,Sold,0x2fdacd,5976862,"4.10Ξ ($4,966)","Jan 14, 2021",4.1,4966,2021-01-14
4513,Sold,DANNY,tycoon.e…,"185Ξ ($63,788)","Oct 03, 2020",185,63788,2020-10-03
4513,Sold,0x832179,DANNY,"60Ξ ($11,986)","May 16, 2020",60,11986,2020-05-16
4515,Sold,natealex,MrTpunks,"26.90Ξ ($53,071)","Feb 21, 2021",26.9,53071,2021-02-21
4515,Sold,0xa3cb30,natealex,"12.50Ξ ($23,255)","Feb 13, 2021",12.5,23255,2021-02-13
4516,Sold,karbonba…,0xchambe…,"5Ξ ($2,960)","Dec 03, 2020",5,2960,2020-12-03
4516,Sold,karbonba…,0x10271d,"5Ξ ($1,940)","Oct 30, 2020",5,1940,2020-10-30
4516,Sold,0xb40dac,karbonba…,"3.80Ξ ($1,362)","Sep 28, 2020",3.8,1362,2020-09-28
4516,Sold,Hemba,0xb40dac,"3Ξ ($1,054)","Sep 24, 2020",3,1054,2020-09-24
4517,Sold,0xa3cb30,evkort,"7Ξ ($2,606)","Oct 11, 2020",7,2606,2020-10-11
4519,Sold,0xd7510a,0xa0efdc,"19.45Ξ ($33,327)","Feb 22, 2021",19.45,33327,2021-02-22
4519,Sold,TheNat,0x568cf5,"4.95Ξ ($1,705)","Oct 02, 2020",4.95,1705,2020-10-02
4519,Sold,0x624394,TheNat,"3.30Ξ ($1,162)","Sep 27, 2020",3.3,1162,2020-09-27
4519,Sold,Hemba,0x624394,0.14Ξ ($18),"Nov 20, 2018",0.14,18,2018-11-20
4523,Sold,8533182,0x749872,0.20Ξ ($99),"Jun 12, 2018",0.2,99,2018-06-12
4526,Sold,0x72c783,0x0ebd1a,"35Ξ ($62,203)","Feb 17, 2021",35,62203,2021-02-17
4526,Sold,EliteCat…,0x72c783,"14Ξ ($23,600)","Feb 06, 2021",14,23600,2021-02-06
4526,Sold,jmg,GoWest23,1.85Ξ ($308),"Apr 06, 2019",1.85,308,2019-04-06
4526,Sold,cielxnoe…,jmg,0.37Ξ ($54),"Feb 21, 2019",0.37,54,2019-02-21
4526,Sold,Zieg,cielxnoe…,0.20Ξ ($144),"Dec 17, 2017",0.2,144,2017-12-17
4528,Sold,Kittypad,0xcf6165,"5.25Ξ ($3,412)","Dec 27, 2020",5.25,3412,2020-12-27
4528,Sold,444.eth,Kittypad,"4.70Ξ ($1,604)","Oct 06, 2020",4.7,1604,2020-10-06
4528,Sold,coinduph…,444.eth,"5.13Ξ ($1,812)","Oct 02, 2020",5.13,1812,2020-10-02
4528,Sold,0x1a96af,coinduph…,0.55Ξ ($95),"Apr 18, 2020",0.55,95,2020-04-18
4529,Sold,0xfba647,mbeck.et…,"42Ξ ($87,904)","Apr 10, 2021",42,87904,2021-04-10
4529,Sold,0x577ebc,0xfba647,"39.99Ξ ($69,900)","Mar 12, 2021",39.99,69900,2021-03-12
4532,Sold,0x033ee7,13503307,"13.85Ξ ($26,466)","Feb 19, 2021",13.85,26466,2021-02-19
4532,Sold,0x5b098b,212711,"2.94Ξ ($1,017)","Sep 24, 2020",2.94,1017,2020-09-24
4532,Sold,0xc00c2b,5966219,0.17Ξ ($50),"Aug 15, 2017",0.17,50,2017-08-15
4533,Sold,Zieg,0x33f848,0.50Ξ ($103),"Oct 20, 2018",0.5,103,2018-10-20
4534,Sold,0x491be7,0x6130d3,"17Ξ ($32,487)","Feb 19, 2021",17,32487,2021-02-19
4534,Sold,NeonNFT,0x491be7,"4.99Ξ ($1,756)","Oct 05, 2020",4.99,1756,2020-10-05
4534,Sold,Dude_Nak…,KittyGr_…,0.14Ξ ($84),"Jun 08, 2018",0.14,84,2018-06-08
4534,Sold,0x8234be,Dude_Nak…,0.10Ξ ($45),"Mar 27, 2018",0.1,45,2018-03-27
4535,Sold,Zieg,0x7c00c9…,0.70Ξ ($96),"Dec 29, 2018",0.7,96,2018-12-29
4537,Sold,Hemba,artofrjm,1.75Ξ ($352),"May 26, 2020",1.75,352,2020-05-26
4538,Sold,6781763,45688,0.29Ξ ($78),"Jul 04, 2017",0.29,78,2017-07-04
4538,Sold,5331586,6781763,0.12Ξ ($33),"Jul 03, 2017",0.12,33,2017-07-03
4539,Sold,0xdcf227,0x011554,"22.99Ξ ($36,507)","Mar 25, 2021",22.99,36507,2021-03-25
4539,Sold,sweat.et…,0xdcf227,"24.99Ξ ($44,263)","Mar 17, 2021",24.99,44263,2021-03-17
4539,Sold,0x1a4d11,sweat.et…,"30Ξ ($57,909)","Mar 14, 2021",30,57909,2021-03-14
4539,Sold,0x9113d4,0x1a4d11,"25Ξ ($48,258)","Mar 13, 2021",25,48258,2021-03-13
4539,Sold,0xd8e806,0x9113d4,0.20Ξ ($59),"Aug 13, 2017",0.2,59,2017-08-13
4539,Sold,0x126619,0xd8e806,0.19Ξ ($43),"Jul 24, 2017",0.19,43,2017-07-24
4540,Sold,12971158,12982947,"25Ξ ($44,955)","Mar 12, 2021",25,44955,2021-03-12
4540,Sold,1742511,6569073,1.15Ξ ($399),"Jul 31, 2020",1.15,399,2020-07-31
4541,Sold,1742511,7278085,1.99Ξ ($747),"Sep 15, 2020",1.99,747,2020-09-15
4542,Sold,10734384,1633948,"19Ξ ($35,027)","Mar 30, 2021",19,35027,2021-03-30
4546,Sold,10734384,0xf5e03b,"15Ξ ($27,797)","Mar 30, 2021",15,27797,2021-03-30
4547,Sold,5966219,7435267,0.30Ξ ($86),"Jun 27, 2017",0.3,86,2017-06-27
4549,Sold,0xc352b5,TokenAng…,4Ξ ($821),"May 24, 2020",4,821,2020-05-24
4550,Sold,0x0a4eaf…,0x565496,"7.45Ξ ($13,206)","Feb 10, 2021",7.45,13206,2021-02-10
4550,Sold,0x00d7c9,0x0a4eaf…,0.25Ξ ($74),"Sep 11, 2017",0.25,74,2017-09-11
4553,Sold,3026470,16740588,"36Ξ ($74,735)","Apr 09, 2021",36,74735,2021-04-09
4553,Sold,8269084,3026470,0.80Ξ ($113),"Dec 24, 2018",0.8,113,2018-12-24
4554,Sold,Pranksy,0x9e199d,1.20Ξ ($419),"Sep 07, 2020",1.2,419,2020-09-07
4554,Sold,0x7e2d1c,Pranksy,1.13Ξ ($201),"Jan 18, 2020",1.13,201,2020-01-18
4555,Sold,4707570,🍄mario.…,"22.50Ξ ($32,804)","Feb 28, 2021",22.5,32804,2021-02-28
4556,Sold,4707570,2654584,"21.75Ξ ($36,036)","Feb 24, 2021",21.75,36036,2021-02-24
4558,Sold,4707570,4300226,"24.30Ξ ($37,139)","Feb 23, 2021",24.3,37139,2021-02-23
4561,Sold,4707570,12086668,"29.20Ξ ($44,346)","Mar 05, 2021",29.2,44346,2021-03-05
4562,Sold,0x596572,0x6c84fe,"27.50Ξ ($49,795)","Mar 12, 2021",27.5,49795,2021-03-12
4562,Sold,wookie.e…,0x596572,"27Ξ ($46,359)","Mar 08, 2021",27,46359,2021-03-08
4564,Sold,0xabf107,0x603e3f,"21.50Ξ ($37,226)","Mar 24, 2021",21.5,37226,2021-03-24
4564,Sold,0x5f5df4,0xabf107,"22.50Ξ ($39,971)","Mar 16, 2021",22.5,39971,2021-03-16
4565,Sold,0x5b098b,16745492,0.18Ξ ($58),"Jun 28, 2017",0.18,58,2017-06-28
4576,Sold,0xef784c,0x905f48,"54.99Ξ ($100,495)","Mar 29, 2021",54.99,100495,2021-03-29
4576,Sold,👱‍♀.eth,0xef784c,"40Ξ ($73,136)","Mar 20, 2021",40,73136,2021-03-20
4576,Sold,Crypto_P…,👱‍♀.eth,"37.49Ξ ($56,739)","Mar 01, 2021",37.49,56739,2021-03-01
4576,Sold,Dude_Nak…,evkort,"7Ξ ($2,624)","Oct 10, 2020",7,2624,2020-10-10
4576,Sold,Thing,Dude_Nak…,"4.49Ξ ($1,567)","Sep 25, 2020",4.49,1567,2020-09-25
4576,Sold,sov,Thing,2Ξ ($734),"Sep 12, 2020",2,734,2020-09-12
4578,Sold,0x58164b,Kenney,0.08Ξ ($60),"May 07, 2018",0.08,60,2018-05-07
4578,Sold,0x595bd0,0x58164b,0.39Ξ ($75),"Jul 28, 2017",0.39,75,2017-07-28
4579,Sold,0xa7eba7,Perfecto…,"9.99Ξ ($4,164)","Oct 25, 2020",9.99,4164,2020-10-25
4583,Sold,5734076,8725887,"35Ξ ($68,531)","Feb 21, 2021",35,68531,2021-02-21
4587,Sold,0x387405,0x77a1a2,"19.50Ξ ($31,697)","Mar 03, 2021",19.5,31697,2021-03-03
4590,Sold,EliteCat…,0x3e17fa,"37.50Ξ ($66,096)","Feb 15, 2021",37.5,66096,2021-02-15
4590,Sold,0x00d7c9,GoWest23,0.70Ξ ($122),"May 06, 2019",0.7,122,2019-05-06
4591,Sold,0xc155f9,0x29b1b2,"6.60Ξ ($8,683)","Feb 01, 2021",6.6,8683,2021-02-01
4591,Sold,NeonNFT,0xc155f9,"2.90Ξ ($1,021)","Sep 26, 2020",2.9,1021,2020-09-26
4591,Sold,Hemba,NeonNFT,2.80Ξ ($982),"Sep 26, 2020",2.8,982,2020-09-26
4592,Sold,0x67edd0,0x5bc79d,"20Ξ ($36,809)","Mar 11, 2021",20,36809,2021-03-11
4592,Sold,0x3e17fa,0x67edd0,"8.50Ξ ($15,289)","Feb 16, 2021",8.5,15289,2021-02-16
4592,Sold,0x624394,0x3e17fa,"3.40Ξ ($1,196)","Sep 27, 2020",3.4,1196,2020-09-27
4592,Sold,Hemba,0x624394,0.14Ξ ($18),"Nov 20, 2018",0.14,18,2018-11-20
4594,Sold,PM_disco…,capital_…,"3.50Ξ ($1,273)","Sep 14, 2020",3.5,1273,2020-09-14
4594,Sold,0x408061,Pranksy,3Ξ ($618),"May 27, 2020",3,618,2020-05-27
4594,Sold,Pranksy,0x408061,0.85Ξ ($188),"Feb 07, 2020",0.85,188,2020-02-07
4594,Sold,0x00d7c9,Pranksy,0.40Ξ ($118),"Jun 21, 2019",0.4,118,2019-06-21
4596,Sold,0x99b884,2732466,"24.50Ξ ($40,642)","Feb 05, 2021",24.5,40642,2021-02-05
4599,Sold,55241,8908293,0.10Ξ ($35),"Nov 19, 2017",0.1,35,2017-11-19
4600,Sold,11844417,kevinken…,"26.99Ξ ($48,804)","Mar 12, 2021",26.99,48804,2021-03-12
4600,Sold,4707570,0xb4bb41,"24.60Ξ ($37,598)","Feb 23, 2021",24.6,37598,2021-02-23
4601,Sold,beautifu…,0xd4442b,"21Ξ ($43,551)","Apr 09, 2021",21,43551,2021-04-09
4601,Sold,0x91313a,beautifu…,"14.95Ξ ($31,281)","Apr 03, 2021",14.95,31281,2021-04-03
4601,Sold,0x47d4f2,0x1cfe3f,"22Ξ ($32,992)","Feb 27, 2021",22,32992,2021-02-27
4602,Sold,2293507,13446246,1Ξ ($389),"Aug 22, 2020",1,389,2020-08-22
4606,Sold,CPyrc,0x36a5bc,"15Ξ ($29,343)","Feb 19, 2021",15,29343,2021-02-19
4606,Sold,0x00ce50,CPyrc,"12Ξ ($23,347)","Feb 19, 2021",12,23347,2021-02-19
4607,Sold,7333681,8338175,"25Ξ ($48,129)","Feb 18, 2021",25,48129,2021-02-18
4607,Sold,55241,7333681,0.10Ξ ($51),"May 28, 2018",0.1,51,2018-05-28
4608,Sold,0x1a4d11,0x03490e,"50.69Ξ ($96,528)","Mar 14, 2021",50.69,96528,2021-03-14
4608,Sold,0x5fd36a,0x1a4d11,"46.50Ξ ($88,841)","Mar 13, 2021",46.5,88841,2021-03-13
4608,Sold,EliteCat…,0x5fd36a,"49.95Ξ ($76,342)","Feb 23, 2021",49.95,76342,2021-02-23
4608,Sold,0x22ff03,GoWest23,1.50Ξ ($243),"Jan 16, 2020",1.5,243,2020-01-16
4609,Sold,0xea9724,0x59bb7b,"17.49Ξ ($33,908)","Mar 31, 2021",17.49,33908,2021-03-31
4609,Sold,seel.eth,0xea9724,"7.27Ξ ($13,293)","Feb 14, 2021",7.27,13293,2021-02-14
4609,Sold,0xa3cb30,seel.eth,"6.10Ξ ($8,208)","Jan 28, 2021",6.1,8208,2021-01-28
4610,Sold,Pixls,0x9e199d,0.23Ξ ($20),"Dec 16, 2018",0.23,20,2018-12-16
4610,Sold,Cyborg,Pixls,0.20Ξ ($18),"Dec 08, 2018",0.2,18,2018-12-08
4611,Sold,TweetyPi…,MrTpunks,"7Ξ ($1,646)","Jun 13, 2020",7,1646,2020-06-13
4611,Sold,Carlini8,TweetyPi…,"5Ξ ($1,021)","May 24, 2020",5,1021,2020-05-24
4611,Sold,VonMises,Carlini8,3Ξ ($615),"May 22, 2020",3,615,2020-05-22
4611,Sold,shilpixe…,0xaf5e63,2Ξ ($388),"Apr 27, 2020",2,388,2020-04-27
4612,Sold,Zieg,0x2db1c4,1Ξ ($148),"Nov 19, 2018",1,148,2018-11-19
4614,Sold,7032062,6081260,"11Ξ ($23,654)","Apr 11, 2021",11,23654,2021-04-11
4614,Sold,6471110,7032062,"19.99Ξ ($41,501)","Apr 09, 2021",19.99,41501,2021-04-09
4614,Sold,10734384,6471110,"16Ξ ($33,072)","Apr 08, 2021",16,33072,2021-04-08
4615,Sold,10734384,7709317,"26.50Ξ ($48,453)","Mar 20, 2021",26.5,48453,2021-03-20
4618,Sold,10937065,16492103,"22.48Ξ ($33,049)","Mar 02, 2021",22.48,33049,2021-03-02
4621,Sold,Cyborg,Kenney,0.20Ξ ($234),"Jan 29, 2018",0.2,234,2018-01-29
4621,Sold,0x00d7c9,Cyborg,0.10Ξ ($30),"Nov 04, 2017",0.1,30,2017-11-04
4622,Sold,0x48db19,NFTinTin,1Ξ ($440),"Aug 17, 2020",1,440,2020-08-17
4624,Sold,wookie.e…,sbdave.e…,"28Ξ ($58,068)","Apr 09, 2021",28,58068,2021-04-09
4624,Sold,Tschuuul…,0xdd1e6f,"18Ξ ($35,512)","Feb 21, 2021",18,35512,2021-02-21
4624,Sold,0x067034,Tschuuul…,"2.99Ξ ($1,062)","Sep 25, 2020",2.99,1062,2020-09-25
4624,Sold,Carlini8,0x067034,2.20Ξ ($720),"Sep 24, 2020",2.2,720,2020-09-24
4624,Sold,Hemba,Carlini8,1.60Ξ ($602),"Sep 14, 2020",1.6,602,2020-09-14
4628,Sold,Pranksy,17MILE,1.49Ξ ($303),"May 22, 2020",1.49,303,2020-05-22
4628,Sold,0x00d7c9,Pranksy,0.25Ξ ($45),"Sep 02, 2019",0.25,45,2019-09-02
4630,Sold,0x565496,0x83fdb6,"28.50Ξ ($48,455)","Mar 24, 2021",28.5,48455,2021-03-24
4630,Sold,cryptodu…,0x565496,"27.50Ξ ($49,993)","Mar 19, 2021",27.5,49993,2021-03-19
4630,Sold,0x19f233,cryptodu…,"18Ξ ($35,254)","Feb 19, 2021",18,35254,2021-02-19
4631,Sold,0xddddad,0xc5417a,"24.99Ξ ($45,239)","Mar 21, 2021",24.99,45239,2021-03-21
4631,Sold,0x86af6e,0xddddad,"24.89Ξ ($33,555)","Feb 28, 2021",24.89,33555,2021-02-28
4631,Sold,0x5fd36a,0x86af6e,"24Ξ ($35,269)","Feb 27, 2021",24,35269,2021-02-27
4631,Sold,0xb9c71d,0x5fd36a,"19.98Ξ ($39,419)","Feb 21, 2021",19.98,39419,2021-02-21
4631,Sold,0x491be7,0xb9c71d,"18.88Ξ ($36,181)","Feb 18, 2021",18.88,36181,2021-02-18
4631,Sold,zazpower…,0x491be7,"5.99Ξ ($2,083)","Oct 03, 2020",5.99,2083,2020-10-03
4631,Sold,coinduph…,zazpower…,"5.40Ξ ($1,961)","Sep 28, 2020",5.4,1961,2020-09-28
4631,Sold,0x87e225,coinduph…,0.65Ξ ($100),"Apr 13, 2020",0.65,100,2020-04-13
4631,Sold,MrTpunks…,0x87e225,0.60Ξ ($134),"Feb 08, 2020",0.6,134,2020-02-08
4631,Sold,0x61e7e7,MrTpunks…,0.79Ξ ($114),"Jan 12, 2020",0.79,114,2020-01-12
4631,Sold,0x0553de,0x581b59,0.69Ξ ($213),"Jun 22, 2019",0.69,213,2019-06-22
4631,Sold,0x00d7c9,0x0553de,0.40Ξ ($118),"Jun 21, 2019",0.4,118,2019-06-21
4632,Sold,0xeebfd0,0x18ee9c,"20.50Ξ ($44,200)","Apr 10, 2021",20.5,44200,2021-04-10
4632,Sold,0x9ff4ea,0xeebfd0,"22Ξ ($45,052)","Apr 08, 2021",22,45052,2021-04-08
4632,Sold,0xddcd25,0x9ff4ea,"18.99Ξ ($36,475)","Mar 31, 2021",18.99,36475,2021-03-31
4632,Sold,0x13816f,0xddcd25,"17.88Ξ ($35,596)","Feb 20, 2021",17.88,35596,2021-02-20
4632,Sold,barthazi…,0x13816f,"4.99Ξ ($1,684)","Oct 02, 2020",4.99,1684,2020-10-02
4632,Sold,0xa2cb00…,barthazi…,"4.49Ξ ($1,538)","Oct 02, 2020",4.49,1538,2020-10-02
4632,Sold,redlione…,0xa2cb00…,"3.39Ξ ($1,168)","Sep 22, 2020",3.39,1168,2020-09-22
4632,Sold,barthazi…,redlione…,"2.99Ξ ($1,100)","Sep 14, 2020",2.99,1100,2020-09-14
4632,Sold,0x6a22c7,barthazi…,2Ξ ($405),"May 27, 2020",2,405,2020-05-27
4632,Sold,0x00d7c9,0x6a22c7,0.10Ξ ($106),"Jan 24, 2018",0.1,106,2018-01-24
4633,Sold,EliteCat…,0x2b8e9d,"5.49Ξ ($6,914)","Jan 23, 2021",5.49,6914,2021-01-23
4633,Sold,EliteCat…,0x5b331e,"7.65Ξ ($9,279)","Jan 07, 2021",7.65,9279,2021-01-07
4633,Sold,Pranksy,GoWest23,0.80Ξ ($129),"Jan 16, 2020",0.8,129,2020-01-16
4633,Sold,0x00d7c9,Pranksy,0.25Ξ ($45),"Sep 02, 2019",0.25,45,2019-09-02
4634,Sold,55241,6681250,0.10Ξ ($61),"Jun 06, 2018",0.1,61,2018-06-06
4635,Sold,12670457,9172719,"14.88Ξ ($28,148)","Feb 18, 2021",14.88,28148,2021-02-18
4635,Sold,5966219,12670457,"5.45Ξ ($3,459)","Dec 27, 2020",5.45,3459,2020-12-27
4636,Sold,0x0bf913,8008732,0.15Ξ ($42),"Jun 30, 2017",0.15,42,2017-06-30
4637,Sold,0xf5099e,Kataster…,0.45Ξ ($66),"Dec 10, 2019",0.45,66,2019-12-10
4637,Sold,0xd8e806,0xa0a59c,0.60Ξ ($121),"Jul 31, 2017",0.6,121,2017-07-31
4637,Sold,0xc00c2b,0xd8e806,0.40Ξ ($77),"Jul 28, 2017",0.4,77,2017-07-28
4639,Sold,EliteCat…,0x4c9692,"16Ξ ($20,715)","Jan 10, 2021",16,20715,2021-01-10
4639,Sold,0x73e4a2,GoWest23,2Ξ ($491),"May 23, 2019",2,491,2019-05-23
4640,Sold,kingskin…,0xb1a875,"16Ξ ($27,762)","Feb 09, 2021",16,27762,2021-02-09
4640,Sold,Pranksy,kingskin…,"10Ξ ($3,526)","Oct 01, 2020",10,3526,2020-10-01
4640,Sold,Slacktid…,Pranksy,"11.50Ξ ($4,079)","Sep 29, 2020",11.5,4079,2020-09-29
4640,Sold,0x2e5d4b,0x976b59,1Ξ ($225),"Oct 02, 2018",1,225,2018-10-02
4640,Sold,0xcbd482,0x2e5d4b,0.05Ξ ($15),"Jun 24, 2017",0.05,15,2017-06-24
4641,Sold,5966219,22324,0.20Ξ ($65),"Jun 23, 2017",0.2,65,2017-06-23
4641,Sold,48543,5966219,0.03Ξ ($10),"Jun 23, 2017",0.03,10,2017-06-23
4642,Sold,13401139,5181557,0.49Ξ ($68),"Mar 06, 2019",0.49,68,2019-03-06
4644,Sold,13401139,0x00bd3a,0.40Ξ ($82),"Jul 10, 2017",0.4,82,2017-07-10
4647,Sold,5734076,1052761,"31Ξ ($53,934)","Feb 17, 2021",31,53934,2021-02-17
4649,Sold,13401139,Smidge,0.59Ξ ($107),"Sep 12, 2019",0.59,107,2019-09-12
4654,Sold,55241,2652949,0.60Ξ ($600),"Jan 22, 2018",0.6,600,2018-01-22
4657,Sold,juggerna…,snxprofe…,0.25Ξ ($47),"Oct 14, 2019",0.25,47,2019-10-14
4658,Sold,1742511,10011784,0.71Ξ ($143),"May 17, 2020",0.71,143,2020-05-17
4659,Sold,0x58164b,10135275,0.16Ξ ($133),"Feb 24, 2018",0.16,133,2018-02-24
4660,Sold,6373D,0xcb28f9,"3.50Ξ ($2,248)","Dec 18, 2020",3.5,2248,2020-12-18
4660,Sold,0x4322d6,6373D,"2.50Ξ ($1,465)","Dec 15, 2020",2.5,1465,2020-12-15
4660,Sold,NeonNFT,0x4322d6,"4Ξ ($2,454)","Nov 24, 2020",4,2454,2020-11-24
4660,Sold,GoWest23,NeonNFT,"6.65Ξ ($2,359)","Sep 30, 2020",6.65,2359,2020-09-30
4660,Sold,Pixls,GoWest23,1Ξ ($161),"Jan 16, 2020",1,161,2020-01-16
4660,Sold,7478,Pixls,0.45Ξ ($61),"Dec 30, 2019",0.45,61,2019-12-30
4660,Sold,0x00d7c9,7478,0.30Ξ ($66),"Jul 31, 2019",0.3,66,2019-07-31
4661,Sold,5966219,34776,"9.44Ξ ($16,353)","Feb 15, 2021",9.44,16353,2021-02-15
4661,Sold,13401139,5966219,0.23Ξ ($58),"Jun 26, 2017",0.23,58,2017-06-26
4662,Sold,renaissa…,0xec4b06,"5Ξ ($1,819)","Sep 28, 2020",5,1819,2020-09-28
4662,Sold,TokenAng…,renaissa…,"3.10Ξ ($1,054)","Sep 23, 2020",3.1,1054,2020-09-23
4662,Sold,0x00d7c9,TokenAng…,0.50Ξ ($132),"Jun 12, 2019",0.5,132,2019-06-12
4664,Sold,0x0ec629,13249187,"17.95Ξ ($35,907)","Apr 02, 2021",17.95,35907,2021-04-02
4664,Sold,0xa3cb30,968233,"16Ξ ($27,354)","Mar 28, 2021",16,27354,2021-03-28
4669,Sold,LeafyGre…,0xaae8c5,"14.99Ξ ($20,933)","Jan 20, 2021",14.99,20933,2021-01-20
4669,Sold,0xe4c479,LeafyGre…,"3.40Ξ ($1,176)","Sep 24, 2020",3.4,1176,2020-09-24
4669,Sold,Hemba,0xe4c479,2.50Ξ ($821),"Sep 23, 2020",2.5,821,2020-09-23
4670,Sold,DjangoBi…,0xb261bd,0.20Ξ ($18),"Dec 06, 2018",0.2,18,2018-12-06
4670,Sold,0x515a82,0x9be1c7,0.24Ξ ($66),"Jul 03, 2017",0.24,66,2017-07-03
4672,Sold,Hemba,0xc352b5,0.14Ξ ($32),"Nov 07, 2018",0.14,32,2018-11-07
4679,Sold,0x032bc4,0x6130d3,"19.70Ξ ($37,647)","Feb 19, 2021",19.7,37647,2021-02-19
4679,Sold,Hemba,0x032bc4,0.09Ξ ($91),"Jan 18, 2018",0.09,91,2018-01-18
4684,Sold,0xfab9b8,0xfaf20a,"5.85Ξ ($9,567)","Feb 04, 2021",5.85,9567,2021-02-04
4684,Sold,Hemba,0x2db1c4,0.14Ξ ($25),"Nov 18, 2018",0.14,25,2018-11-18
4688,Sold,Hemba,0x6f0e05,1.40Ξ ($516),"Sep 12, 2020",1.4,516,2020-09-12
4689,Sold,0x86af6e,monopoly…,"22.69Ξ ($33,356)","Feb 26, 2021",22.69,33356,2021-02-26
4689,Sold,0x952449,0x86af6e,"23Ξ ($38,108)","Feb 24, 2021",23,38108,2021-02-24
4689,Sold,0x541075,0x952449,"8Ξ ($14,238)","Feb 10, 2021",8,14238,2021-02-10
4691,Sold,0x491be7,0x36e955,"13.88Ξ ($27,030)","Feb 20, 2021",13.88,27030,2021-02-20
4691,Sold,Tschuuul…,0x491be7,"5Ξ ($1,736)","Oct 03, 2020",5,1736,2020-10-03
4691,Sold,Pixls,Tschuuul…,0.29Ξ ($31),"Jan 31, 2019",0.29,31,2019-01-31
4691,Sold,DjangoBi…,Pixls,0.10Ξ ($22),"Sep 07, 2018",0.1,22,2018-09-07
4691,Sold,0x0bf913,0x9be1c7,0.21Ξ ($60),"Jul 02, 2017",0.21,60,2017-07-02
4692,Sold,3747143,3997959,"25Ξ ($51,597)","Apr 08, 2021",25,51597,2021-04-08
4692,Sold,1700403,3747143,"27.37Ξ ($49,421)","Mar 21, 2021",27.37,49421,2021-03-21
4695,Sold,0x27c79a,0x3f1724,0.90Ξ ($190),"May 18, 2020",0.9,190,2020-05-18
4695,Sold,Pranksy,0x27c79a,0.50Ξ ($72),"Jan 07, 2020",0.5,72,2020-01-07
4695,Sold,0x00d7c9,Pranksy,0.25Ξ ($45),"Sep 02, 2019",0.25,45,2019-09-02
4697,Sold,55241,7435267,0.05Ξ ($26),"May 28, 2018",0.05,26,2018-05-28
4699,Sold,0x6336fb,0x9de43a,"24.75Ξ ($51,258)","Apr 09, 2021",24.75,51258,2021-04-09
4699,Sold,0xffe678,0x6336fb,"21.90Ξ ($45,464)","Apr 09, 2021",21.9,45464,2021-04-09
4699,Sold,scalynel…,0xffe678,"4Ξ ($2,066)","Nov 26, 2020",4,2066,2020-11-26
4699,Sold,LSD,scalynel…,"3Ξ ($1,419)","Nov 19, 2020",3,1419,2020-11-19
4699,Sold,0xa3cb30,0x257e2b,"5.60Ξ ($1,910)","Oct 08, 2020",5.6,1910,2020-10-08
4707,Sold,tonyherr…,0x5b331e,"5.75Ξ ($5,943)","Jan 11, 2021",5.75,5943,2021-01-11
4719,Sold,tonyherr…,0x3e17fa,"11.25Ξ ($13,858)","Jan 24, 2021",11.25,13858,2021-01-24
4726,Sold,tonyherr…,0x4c9692,"5Ξ ($6,104)","Jan 21, 2021",5,6104,2021-01-21
4729,Sold,tonyherr…,shilpixe…,"55Ξ ($117,467)","Apr 11, 2021",55,117467,2021-04-11
4740,Sold,0xb166dd,MadMax,"22.75Ξ ($44,423)","Feb 21, 2021",22.75,44423,2021-02-21
4740,Sold,tonyherr…,0xb166dd,"11.75Ξ ($15,627)","Jan 28, 2021",11.75,15627,2021-01-28
4747,Sold,0x5462de,sov,1Ξ ($316),"Jun 28, 2017",1,316,2017-06-28
4750,Sold,0xdbc416,0xadc229,"9.50Ξ ($13,187)","Jan 30, 2021",9.5,13187,2021-01-30
4750,Sold,tonyherr…,0xdbc416,"5.50Ξ ($5,887)","Jan 12, 2021",5.5,5887,2021-01-12
4767,Sold,0xc9ab58,0x702e9e,"6.50Ξ ($7,718)","Jan 07, 2021",6.5,7718,2021-01-07
4767,Sold,CPyrc,Michel_M…,"5.45Ξ ($1,858)","Sep 25, 2020",5.45,1858,2020-09-25
4767,Sold,Pranksy,CPyrc,"4.80Ξ ($1,851)","Sep 19, 2020",4.8,1851,2020-09-19
4767,Sold,tonyherr…,evkort,"5Ξ ($1,914)","Sep 14, 2020",5,1914,2020-09-14
4770,Sold,0x0e4437,0x60d25d,"53Ξ ($94,599)","Mar 12, 2021",53,94599,2021-03-12
4770,Sold,0x691b87,0x0e4437,"53Ξ ($82,746)","Mar 02, 2021",53,82746,2021-03-02
4770,Sold,OnlyToas…,0xeb725f,"33.20Ξ ($62,714)","Feb 20, 2021",33.2,62714,2021-02-20
4770,Sold,0x4db323,OnlyToas…,"29Ξ ($57,736)","Feb 20, 2021",29,57736,2021-02-20
4770,Sold,OnlyToas…,0x4db323,"22.39Ξ ($40,691)","Feb 17, 2021",22.39,40691,2021-02-17
4770,Sold,DojiFlip,OnlyToas…,"19.88Ξ ($35,129)","Feb 17, 2021",19.88,35129,2021-02-17
4770,Sold,OnlyToas…,DojiFlip,"18Ξ ($32,559)","Feb 14, 2021",18,32559,2021-02-14
4770,Sold,0x336caf,OnlyToas…,"17Ξ ($30,747)","Feb 14, 2021",17,30747,2021-02-14
4770,Sold,tonyherr…,0x336caf,"8.25Ξ ($11,165)","Jan 27, 2021",8.25,11165,2021-01-27
4776,Sold,tonyherr…,sighduck…,"34Ξ ($70,682)","Apr 09, 2021",34,70682,2021-04-09
4777,Sold,chifoomi,0x6130d3,"13.65Ξ ($26,702)","Feb 19, 2021",13.65,26702,2021-02-19
4777,Sold,tonyherr…,chifoomi,"5Ξ ($2,055)","Oct 24, 2020",5,2055,2020-10-24
4779,Sold,tonyherr…,simontay…,"7.50Ξ ($2,796)","Oct 11, 2020",7.5,2796,2020-10-11
4780,Sold,0xc72aed,0xab61cc,"75.50Ξ ($156,576)","Apr 09, 2021",75.5,156576,2021-04-09
4780,Sold,tonyherr…,0xc72aed,"7.50Ξ ($9,225)","Jan 21, 2021",7.5,9225,2021-01-21
4784,Sold,tonyherr…,0x561786,"5.75Ξ ($6,207)","Jan 12, 2021",5.75,6207,2021-01-12
4785,Sold,tonyherr…,0x3185fa,"13.25Ξ ($22,272)","Feb 06, 2021",13.25,22272,2021-02-06
4792,Sold,0x565496,0x3731a5,"12Ξ ($22,081)","Feb 17, 2021",12,22081,2021-02-17
4792,Sold,tonyherr…,0x565496,"5.25Ξ ($5,772)","Jan 12, 2021",5.25,5772,2021-01-12
4794,Sold,👨🏻‍🌾.…,0xdb2ba0,"22Ξ ($43,107)","Apr 07, 2021",22,43107,2021-04-07
4794,Sold,0xdbc416,👨🏻‍🌾.…,"12.50Ξ ($22,732)","Feb 14, 2021",12.5,22732,2021-02-14
4794,Sold,tonyherr…,0xdbc416,"6.25Ξ ($6,690)","Jan 12, 2021",6.25,6690,2021-01-12
4796,Sold,0x1a4d11,0x7500af,"22Ξ ($37,646)","Mar 23, 2021",22,37646,2021-03-23
4796,Sold,0xb73d34,0x1a4d11,"22.40Ξ ($40,218)","Mar 15, 2021",22.4,40218,2021-03-15
4796,Sold,0x297009,0xb73d34,"18Ξ ($32,662)","Mar 09, 2021",18,32662,2021-03-09
4796,Sold,0xd7510a,0x297009,"12Ξ ($22,227)","Feb 17, 2021",12,22227,2021-02-17
4796,Sold,tonyherr…,0xd7510a,"8.50Ξ ($15,023)","Feb 16, 2021",8.5,15023,2021-02-16
4797,Sold,👱‍♀.eth,0x65b1b9,"22Ξ ($38,432)","Mar 11, 2021",22,38432,2021-03-11
4797,Sold,0x097761,👱‍♀.eth,"20Ξ ($32,205)","Mar 06, 2021",20,32205,2021-03-06
4797,Sold,sanko.et…,0x097761,"22Ξ ($34,638)","Mar 02, 2021",22,34638,2021-03-02
4797,Sold,0x84c920,sanko.et…,"20Ξ ($30,419)","Mar 01, 2021",20,30419,2021-03-01
4797,Sold,0x6c4ceb,0x84c920,"25.15Ξ ($36,312)","Mar 01, 2021",25.15,36312,2021-03-01
4797,Sold,0x226952,0xb1a875,"28.50Ξ ($54,335)","Feb 21, 2021",28.5,54335,2021-02-21
4797,Sold,tonyherr…,0x226952,"8.25Ξ ($12,522)","Feb 03, 2021",8.25,12522,2021-02-03
4798,Sold,renaissa…,0xc05488,"33Ξ ($59,933)","Mar 12, 2021",33,59933,2021-03-12
4798,Sold,0x4c9692,renaissa…,"30Ξ ($44,809)","Feb 27, 2021",30,44809,2021-02-27
4798,Sold,tonyherr…,0x4c9692,"12Ξ ($21,706)","Feb 14, 2021",12,21706,2021-02-14
4799,Sold,0x09d408,0xf51d05,"25Ξ ($48,951)","Feb 21, 2021",25,48951,2021-02-21
4799,Sold,tonyherr…,0x09d408,"12Ξ ($15,960)","Jan 29, 2021",12,15960,2021-01-29
4800,Sold,0xc04f55,0x0f086d,"14.95Ξ ($29,745)","Feb 20, 2021",14.95,29745,2021-02-20
4800,Sold,0x58164b,Dude_Nak…,0.06Ξ ($12),"Oct 14, 2018",0.06,12,2018-10-14
4802,Sold,0x54d7f9,beautifu…,"45Ξ ($61,049)","Feb 28, 2021",45,61049,2021-02-28
4802,Sold,0xb24086,0x54d7f9,"35Ξ ($63,092)","Feb 22, 2021",35,63092,2021-02-22
4802,Sold,shilpixe…,0x5c7432,0.25Ξ ($84),"Oct 16, 2017",0.25,84,2017-10-16
4803,Sold,shilpixe…,0x6130d3,"12Ξ ($21,852)","Feb 16, 2021",12,21852,2021-02-16
4804,Sold,0x023ef7,0x20af8c,"18.98Ξ ($37,084)","Feb 21, 2021",18.98,37084,2021-02-21
4804,Sold,0x73e788,0x023ef7,"17.95Ξ ($35,414)","Feb 21, 2021",17.95,35414,2021-02-21
4804,Sold,0x033ee7,0x73e788,"5.60Ξ ($7,368)","Feb 01, 2021",5.6,7368,2021-02-01
4804,Sold,0xc69ae4,0x033ee7,"2.93Ξ ($1,013)","Sep 24, 2020",2.93,1013,2020-09-24
4804,Sold,satman,0xc69ae4,1.10Ξ ($225),"May 25, 2020",1.1,225,2020-05-25
4804,Sold,Fearless…,satman,0.50Ξ ($69),"Mar 13, 2020",0.5,69,2020-03-13
4804,Sold,0x8234be,Fearless…,0.30Ξ ($35),"Jan 24, 2019",0.3,35,2019-01-24
4805,Sold,GoWest23,capital_…,"6.50Ξ ($2,396)","Sep 12, 2020",6.5,2396,2020-09-12
4805,Sold,0x22ff03,GoWest23,5Ξ ($994),"May 14, 2020",5,994,2020-05-14
4806,Sold,16058782,Tschuuul…,0.75Ξ ($136),"Apr 08, 2019",0.75,136,2019-04-08
4806,Sold,8533182,0xa0a59c,0.25Ξ ($75),"Aug 17, 2017",0.25,75,2017-08-17
4808,Sold,ross_VRO…,0x7a3960,"4.60Ξ ($1,686)","Oct 17, 2020",4.6,1686,2020-10-17
4808,Sold,Slider92,ross_VRO…,"6.20Ξ ($2,201)","Sep 30, 2020",6.2,2201,2020-09-30
4808,Sold,0x2aa720,Slider92,"5.99Ξ ($2,131)","Sep 30, 2020",5.99,2131,2020-09-30
4808,Sold,Sylveste…,0x2aa720,"5.95Ξ ($2,128)","Sep 29, 2020",5.95,2128,2020-09-29
4808,Sold,0x11c9a7,Sylveste…,"3.19Ξ ($1,122)","Sep 27, 2020",3.19,1122,2020-09-27
4808,Sold,0x5aaeb9,0x11c9a7,"3Ξ ($1,062)","Sep 27, 2020",3,1062,2020-09-27
4808,Sold,0x694a69,0x5aaeb9,"3Ξ ($1,065)","Sep 26, 2020",3,1065,2020-09-26
4808,Sold,0x5aaeb9,0x694a69,"2.90Ξ ($1,016)","Sep 25, 2020",2.9,1016,2020-09-25
4808,Sold,0x5e7ee9,0x5aaeb9,2.70Ξ ($948),"Sep 24, 2020",2.7,948,2020-09-24
4808,Sold,Hemba,0x5e7ee9,2.50Ξ ($865),"Sep 24, 2020",2.5,865,2020-09-24
4809,Sold,0x19ac60,0x59a549,"4.69Ξ ($6,639)","Jan 25, 2021",4.69,6639,2021-01-25
4810,Sold,0x912500,0x4e0030,"4.20Ξ ($5,573)","Jan 26, 2021",4.2,5573,2021-01-26
4810,Sold,Hemba,0x912500,0.14Ξ ($30),"Nov 12, 2018",0.14,30,2018-11-12
4811,Sold,7478,helpchai…,0.33Ξ ($61),"Nov 02, 2019",0.33,61,2019-11-02
4811,Sold,0x00d7c9,7478,0.25Ξ ($44),"Sep 28, 2019",0.25,44,2019-09-28
4812,Sold,EliteCat…,0x584cdf,"39.99Ξ ($68,143)","Mar 28, 2021",39.99,68143,2021-03-28
4812,Sold,shilpixe…,GoWest23,2.50Ξ ($470),"Apr 25, 2020",2.5,470,2020-04-25
4813,Sold,MadMax,0x8e3934,"21.35Ξ ($40,924)","Feb 22, 2021",21.35,40924,2021-02-22
4813,Sold,aviexkak…,MadMax,"20.50Ξ ($39,587)","Feb 22, 2021",20.5,39587,2021-02-22
4813,Sold,Party,0xe17d91,"4.50Ξ ($5,561)","Jan 18, 2021",4.5,5561,2021-01-18
4813,Sold,0x2fdacd,Party,"4Ξ ($4,906)","Jan 14, 2021",4,4906,2021-01-14
4814,Sold,0xdd23ab,1913727,"18Ξ ($32,951)","Mar 30, 2021",18,32951,2021-03-30
4814,Sold,0x1d337f,14492587,"22.85Ξ ($39,434)","Mar 08, 2021",22.85,39434,2021-03-08
4814,Sold,0x39bdec,11626205,"6.50Ξ ($8,757)","Jan 24, 2021",6.5,8757,2021-01-24
4814,Sold,0x2fdacd,3784172,"5.50Ξ ($6,065)","Jan 13, 2021",5.5,6065,2021-01-13
4815,Sold,0x8bb4f3,0x92ed97,"14Ξ ($27,536)","Feb 19, 2021",14,27536,2021-02-19
4815,Sold,Ajiyl,0x8bb4f3,"12Ξ ($22,227)","Feb 17, 2021",12,22227,2021-02-17
4815,Sold,0xb6be4d,Ajiyl,0.09Ξ ($42),"Dec 04, 2017",0.09,42,2017-12-04
4816,Sold,0xa3cb30,11139369,"19.99Ξ ($36,712)","Mar 30, 2021",19.99,36712,2021-03-30
4817,Sold,0x58164b,Kenney,0.08Ξ ($60),"May 07, 2018",0.08,60,2018-05-07
4817,Sold,0xa7eba7,0x682656,0.39Ξ ($120),"Aug 12, 2017",0.39,120,2017-08-12
4818,Sold,Blaze310,0x9e199d,0.24Ξ ($20),"Dec 16, 2018",0.24,20,2018-12-16
4818,Sold,Hemba,Blaze310,0.14Ξ ($15),"Nov 26, 2018",0.14,15,2018-11-26
4820,Sold,6249972,255789,"28.50Ξ ($51,217)","Mar 16, 2021",28.5,51217,2021-03-16
4821,Sold,4656795,5966219,0.25Ξ ($33),"Nov 20, 2018",0.25,33,2018-11-20
4823,Sold,0xabf107,0x34993e,"25.50Ξ ($45,337)","Mar 12, 2021",25.5,45337,2021-03-12
4823,Sold,0x19f233,0xf1b658,"30Ξ ($57,556)","Feb 22, 2021",30,57556,2021-02-22
4824,Sold,Pranksy,0xaea8e3,"15Ξ ($30,563)","Apr 07, 2021",15,30563,2021-04-07
4824,Sold,0xb4bb41,Pranksy,"27.99Ξ ($50,612)","Mar 12, 2021",27.99,50612,2021-03-12
4824,Sold,0x07c5ea,0xb4bb41,"23.49Ξ ($44,178)","Feb 22, 2021",23.49,44178,2021-02-22
4824,Sold,0x491be7,0x07c5ea,"19.50Ξ ($38,110)","Feb 21, 2021",19.5,38110,2021-02-21
4824,Sold,Pranksy,0x491be7,"6Ξ ($2,113)","Oct 04, 2020",6,2113,2020-10-04
4824,Sold,KittyGr_…,Pranksy,"5Ξ ($1,759)","Oct 04, 2020",5,1759,2020-10-04
4824,Sold,0x00d7c9,KittyGr_…,0.10Ξ ($60),"Jun 08, 2018",0.1,60,2018-06-08
4826,Sold,0x3b6eac,0x3f744d,"21.50Ξ ($44,441)","Apr 08, 2021",21.5,44441,2021-04-08
4826,Sold,0x1d45f1,0x3b6eac,"16Ξ ($31,146)","Feb 21, 2021",16,31146,2021-02-21
4826,Sold,MadMax,0x1d45f1,"13.75Ξ ($26,350)","Feb 18, 2021",13.75,26350,2021-02-18
4826,Sold,whiterab…,MadMax,"12.70Ξ ($24,302)","Feb 18, 2021",12.7,24302,2021-02-18
4826,Sold,0x1a96af,whiterab…,1.17Ξ ($435),"Sep 10, 2020",1.17,435,2020-09-10
4827,Sold,Fearless…,0xc352b5,0.60Ξ ($121),"May 14, 2020",0.6,121,2020-05-14
4827,Sold,0x677b43,Fearless…,0.55Ξ ($65),"Jan 24, 2019",0.55,65,2019-01-24
4827,Sold,Cyborg,0x677b43,0.35Ξ ($67),"Jul 11, 2017",0.35,67,2017-07-11
4827,Sold,0x5b098b,Cyborg,0.14Ξ ($39),"Jun 30, 2017",0.14,39,2017-06-30
4829,Sold,0x5f5df4,16105941,"38Ξ ($57,983)","Mar 04, 2021",38,57983,2021-03-04
4831,Sold,14079978,115390,"21.20Ξ ($40,938)","Feb 21, 2021",21.2,40938,2021-02-21
4831,Sold,10734384,14079978,"7.90Ξ ($14,356)","Feb 13, 2021",7.9,14356,2021-02-13
4832,Sold,55241,0xa80be8…,0.10Ξ ($31),"Oct 30, 2017",0.1,31,2017-10-30
4836,Sold,0xa36e35,0x1e243e,"23.50Ξ ($42,856)","Mar 19, 2021",23.5,42856,2021-03-19
4836,Sold,0x939183,0xa36e35,"4Ξ ($7,131)","Mar 19, 2021",4,7131,2021-03-19
4836,Sold,Hemba,0x939183,0.16Ξ ($16),"Dec 05, 2018",0.16,16,2018-12-05
4838,Sold,jmg,0x55afb7,0.18Ξ ($43),"Sep 22, 2018",0.18,43,2018-09-22
4838,Sold,Hemba,jmg,0.06Ξ ($47),"May 06, 2018",0.06,47,2018-05-06
4839,Sold,Hemba,0xc352b5,0.48Ξ ($62),"Nov 20, 2018",0.48,62,2018-11-20
4840,Sold,6781763,7823584,0.32Ξ ($88),"Jul 03, 2017",0.32,88,2017-07-03
4840,Sold,5331586,6781763,0.18Ξ ($50),"Jul 03, 2017",0.18,50,2017-07-03
4841,Sold,0x38f1df,0x2a0626,"18.40Ξ ($35,950)","Feb 21, 2021",18.4,35950,2021-02-21
4841,Sold,ross_VRO…,0x38f1df,"5.74Ξ ($9,803)","Feb 08, 2021",5.74,9803,2021-02-08
4841,Sold,0x033ee7,ross_VRO…,"4.56Ξ ($5,641)","Jan 27, 2021",4.56,5641,2021-01-27
4841,Sold,MrNFT,0x033ee7,2.88Ξ ($996),"Sep 24, 2020",2.88,996,2020-09-24
4841,Sold,Pranksy,MrNFT,2.19Ξ ($757),"Sep 24, 2020",2.19,757,2020-09-24
4841,Sold,Hemba,Pranksy,1.80Ξ ($613),"Sep 22, 2020",1.8,613,2020-09-22
4842,Sold,0xa3cb30,0x5deedc,"18.50Ξ ($34,106)","Mar 30, 2021",18.5,34106,2021-03-30
4842,Sold,0x5b098b,0x00bd9f,0.26Ξ ($70),"Jul 04, 2017",0.26,70,2017-07-04
4842,Sold,Cyborg,0x5b098b,0.10Ξ ($30),"Jun 24, 2017",0.1,30,2017-06-24
4844,Sold,6356542,4185070,"5.25Ξ ($9,030)","Feb 08, 2021",5.25,9030,2021-02-08
4845,Sold,1495527,3333383,"10.50Ξ ($19,257)","Feb 17, 2021",10.5,19257,2021-02-17
4845,Sold,11557757,1495527,"4.45Ξ ($5,703)","Jan 26, 2021",4.45,5703,2021-01-26
4847,Sold,Hemba,0x376704,1.44Ξ ($296),"May 24, 2020",1.44,296,2020-05-24
4848,Sold,Hemba,Kenney,0.15Ξ ($57),"Apr 04, 2018",0.15,57,2018-04-04
4851,Sold,0x1d1ef8,10171867,"11Ξ ($5,142)","Nov 17, 2020",11,5142,2020-11-17
4852,Sold,6232313,957165,"22Ξ ($46,208)","Apr 05, 2021",22,46208,2021-04-05
4852,Sold,10734384,6232313,"20Ξ ($36,871)","Mar 30, 2021",20,36871,2021-03-30
4854,Sold,0xa06bd7,hellogar…,"19.48Ξ ($40,673)","Apr 09, 2021",19.48,40673,2021-04-09
4854,Sold,0xbb048e,0xa06bd7,"61Ξ ($103,560)","Mar 28, 2021",61,103560,2021-03-28
4854,Sold,0x0b88fd,0xbb048e,"20.50Ξ ($34,279)","Mar 23, 2021",20.5,34279,2021-03-23
4861,Sold,ross,0x8a76b7,"5.45Ξ ($4,254)","Jan 02, 2021",5.45,4254,2021-01-02
4861,Sold,Zieg,ross,"5Ξ ($1,725)","Oct 02, 2020",5,1725,2020-10-02
4861,Sold,0xf28820,Zieg,"4.90Ξ ($1,678)","Oct 02, 2020",4.9,1678,2020-10-02
4861,Sold,Pranksy,0xf28820,2.49Ξ ($874),"Sep 24, 2020",2.49,874,2020-09-24
4861,Sold,MrNFT,Pranksy,2.18Ξ ($713),"Sep 24, 2020",2.18,713,2020-09-24
4861,Sold,j1mmy,MrNFT,1.80Ξ ($618),"Sep 22, 2020",1.8,618,2020-09-22
4861,Sold,MrNFT,j1mmy,1.56Ξ ($588),"Sep 14, 2020",1.56,588,2020-09-14
4861,Sold,Pranksy,MrNFT,1.40Ξ ($527),"Sep 14, 2020",1.4,527,2020-09-14
4861,Sold,Hemba,Pranksy,1.40Ξ ($514),"Sep 11, 2020",1.4,514,2020-09-11
4862,Sold,10734384,14240741,"15.50Ξ ($31,035)","Apr 02, 2021",15.5,31035,2021-04-02
4864,Sold,13419056,12800693,0.15Ξ ($28),"Oct 11, 2018",0.15,28,2018-10-11
4865,Sold,8321923,9629079,"25Ξ ($43,579)","Mar 08, 2021",25,43579,2021-03-08
4866,Sold,Loopify,0x62bdc6,"18Ξ ($38,280)","Apr 11, 2021",18,38280,2021-04-11
4866,Sold,shilpixe…,Loopify,"15.49Ξ ($32,018)","Apr 08, 2021",15.49,32018,2021-04-08
4866,Sold,0xf9728b,0xbf6ccf,"4Ξ ($2,295)","Dec 24, 2020",4,2295,2020-12-24
4866,Sold,Punkofth…,0xf9728b,"3.00Ξ ($1,065)","Sep 26, 2020",3,1065,2020-09-26
4867,Sold,0xd3e2e7,0xcdd84c,"15Ξ ($29,810)","Feb 20, 2021",15,29810,2021-02-20
4867,Sold,0x13816f,0xd3e2e7,"9.80Ξ ($17,773)","Feb 17, 2021",9.8,17773,2021-02-17
4867,Sold,undefine…,0x13816f,"4Ξ ($1,433)","Sep 28, 2020",4,1433,2020-09-28
4867,Sold,Loopify,undefine…,1.75Ξ ($670),"Sep 18, 2020",1.75,670,2020-09-18
4867,Sold,MrNFT,Loopify,1.78Ξ ($673),"Sep 14, 2020",1.78,673,2020-09-14
4867,Sold,Hemba,MrNFT,1.60Ξ ($602),"Sep 14, 2020",1.6,602,2020-09-14
4868,Sold,2pac,DANNY,"15Ξ ($6,780)","Nov 16, 2020",15,6780,2020-11-16
4868,Sold,0xa3cb30,0x257e2b,"16Ξ ($5,813)","Oct 09, 2020",16,5813,2020-10-09
4871,Sold,ManOverb…,0xfb60bb,0.90Ξ ($290),"Jul 29, 2020",0.9,290,2020-07-29
4871,Sold,0x4b9af5,ManOverb…,1Ξ ($236),"Jun 12, 2020",1,236,2020-06-12
4871,Sold,0x1a96af,0x4b9af5,1.13Ξ ($228),"May 26, 2020",1.13,228,2020-05-26
4873,Sold,1742511,metapurs…,0.99Ξ ($369),"Sep 10, 2020",0.99,369,2020-09-10
4875,Sold,0x5e7ee9,gaus,"3.60Ξ ($1,288)","Sep 28, 2020",3.6,1288,2020-09-28
4875,Sold,0xb40dac,0x5e7ee9,"3.40Ξ ($1,202)","Sep 26, 2020",3.4,1202,2020-09-26
4875,Sold,0x5aaeb9,0xb40dac,2.70Ξ ($948),"Sep 24, 2020",2.7,948,2020-09-24
4875,Sold,SharkWha…,0x5aaeb9,2.45Ξ ($848),"Sep 24, 2020",2.45,848,2020-09-24
4875,Sold,ross_VRO…,SharkWha…,2.25Ξ ($779),"Sep 24, 2020",2.25,779,2020-09-24
4875,Sold,Pranksy,ross_VRO…,1.50Ξ ($564),"Sep 14, 2020",1.5,564,2020-09-14
4875,Sold,Hemba,Pranksy,1.40Ξ ($514),"Sep 11, 2020",1.4,514,2020-09-11
4877,Sold,0x00d7c9,Pixls,0.40Ξ ($115),"Jul 06, 2019",0.4,115,2019-07-06
4878,Sold,0xccc003,0x56fc4b,"21.40Ξ ($36,554)","Feb 22, 2021",21.4,36554,2021-02-22
4878,Sold,0x13816f,0xccc003,"13.50Ξ ($26,440)","Feb 19, 2021",13.5,26440,2021-02-19
4878,Sold,NeonNFT,0x13816f,"4.75Ξ ($1,603)","Oct 02, 2020",4.75,1603,2020-10-02
4878,Sold,lordtyle…,NeonNFT,"5.40Ξ ($1,921)","Sep 30, 2020",5.4,1921,2020-09-30
4878,Sold,Hemba,lordtyle…,"3Ξ ($1,036)","Sep 25, 2020",3,1036,2020-09-25
4879,Sold,Goop,alxo,0.26Ξ ($40),"Nov 23, 2019",0.26,40,2019-11-23
4879,Sold,juggerna…,Goop,0.25Ξ ($38),"Nov 23, 2019",0.25,38,2019-11-23
4880,Sold,0x596572,934967,"54Ξ ($79,375)","Mar 05, 2021",54,79375,2021-03-05
4880,Sold,0xfba169,5858674,"46Ξ ($62,071)","Feb 28, 2021",46,62071,2021-02-28
4882,Sold,Dude_Nak…,artofrjm,1.69Ξ ($340),"May 26, 2020",1.69,340,2020-05-26
4882,Sold,Fearless…,Dude_Nak…,0.50Ξ ($59),"Mar 13, 2020",0.5,59,2020-03-13
4882,Sold,jmg,Fearless…,0.35Ξ ($41),"Jan 24, 2019",0.35,41,2019-01-24
4882,Sold,0x8234be,jmg,0.08Ξ ($34),"Nov 29, 2017",0.08,34,2017-11-29
4889,Sold,Hemba,0x8adbff,0.15Ξ ($105),"Dec 13, 2017",0.15,105,2017-12-13
4889,Sold,0x0bf913,Hemba,0.24Ξ ($65),"Jul 04, 2017",0.24,65,2017-07-04
4890,Sold,55241,tttaaa,0.45Ξ ($110),"May 22, 2019",0.45,110,2019-05-22
4892,Sold,shilpixe…,mikegee.…,"29.99Ξ ($52,353)","Mar 12, 2021",29.99,52353,2021-03-12
4893,Sold,0x00d7c9,11340748,0.10Ξ ($62),"Jun 03, 2018",0.1,62,2018-06-03
4897,Sold,Hemba,0x717403,0.05Ξ ($13),"Jun 26, 2017",0.05,13,2017-06-26
4898,Sold,0x3e17fa,0xcdd84c,"22.50Ξ ($44,801)","Feb 20, 2021",22.5,44801,2021-02-20
4898,Sold,MrTpunks…,0x3e17fa,"7.50Ξ ($2,639)","Sep 27, 2020",7.5,2639,2020-09-27
4898,Sold,0xcc80a4,MrTpunks…,"6.25Ξ ($2,202)","Sep 27, 2020",6.25,2202,2020-09-27
4898,Sold,barthazi…,0xcc80a4,"5.99Ξ ($2,216)","Sep 15, 2020",5.99,2216,2020-09-15
4898,Sold,0x6e5b3f,barthazi…,2.90Ξ ($597),"May 27, 2020",2.9,597,2020-05-27
4899,Sold,✨🚀🌙.et…,0x962bd5,"17.50Ξ ($36,673)","Apr 03, 2021",17.5,36673,2021-04-03
4900,Sold,0x58164b,Kenney,0.06Ξ ($45),"May 07, 2018",0.06,45,2018-05-07
4902,Sold,NeonNFT,0x177491,"3.35Ξ ($1,203)","Sep 28, 2020",3.35,1203,2020-09-28
4902,Sold,Pranksy,NeonNFT,"2.99Ξ ($1,055)","Sep 27, 2020",2.99,1055,2020-09-27
4902,Sold,0x5aaeb9,Pranksy,2.29Ξ ($792),"Sep 24, 2020",2.29,792,2020-09-24
4902,Sold,Pranksy,0x5aaeb9,2.19Ξ ($757),"Sep 24, 2020",2.19,757,2020-09-24
4902,Sold,Hemba,Pranksy,1.80Ξ ($613),"Sep 22, 2020",1.8,613,2020-09-22
4904,Sold,14966261,4273891,0.89Ξ ($161),"Oct 15, 2019",0.89,161,2019-10-15
4905,Sold,0xaae8c5,0x18ee9c,"17.48Ξ ($32,217)","Mar 30, 2021",17.48,32217,2021-03-30
4905,Sold,0xad287c,mayweall…,"5.25Ξ ($3,818)","Dec 29, 2020",5.25,3818,2020-12-29
4905,Sold,0x8234be,0xad287c,0.10Ξ ($42),"Apr 03, 2018",0.1,42,2018-04-03
4906,Sold,0xc155f9,0xb9afc8,"5.69Ξ ($8,636)","Feb 03, 2021",5.69,8636,2021-02-03
4906,Sold,0xe4c479,0xc155f9,"2.90Ξ ($1,021)","Sep 26, 2020",2.9,1021,2020-09-26
4906,Sold,Hemba,0xe4c479,"3Ξ ($1,051)","Sep 25, 2020",3,1051,2020-09-25
4909,Sold,pleyuh.e…,0xce7a9f,"25Ξ ($41,812)","Mar 07, 2021",25,41812,2021-03-07
4909,Sold,Shrugs,pleyuh.e…,"12Ξ ($20,571)","Feb 08, 2021",12,20571,2021-02-08
4909,Sold,0x0bf913,Shrugs,0.30Ξ ($84),"Aug 15, 2018",0.3,84,2018-08-15
4910,Sold,Goop,0x98c488,0.76Ξ ($153),"May 17, 2020",0.76,153,2020-05-17
4910,Sold,0x9cd85c,Goop,0.55Ξ ($78),"Jan 08, 2020",0.55,78,2020-01-08
4910,Sold,Goop,0x9cd85c,0.44Ξ ($59),"Jan 04, 2020",0.44,59,2020-01-04
4910,Sold,0x5d99d4,Goop,0.40Ξ ($54),"Dec 30, 2019",0.4,54,2019-12-30
4910,Sold,0x00d7c9,0x5d99d4,0.10Ξ ($30),"Oct 31, 2017",0.1,30,2017-10-31
4912,Sold,NeonNFT,0x13816f,"4.19Ξ ($1,563)","Oct 10, 2020",4.19,1563,2020-10-10
4912,Sold,Carlini8,Korniej,2.50Ξ ($849),"Sep 23, 2020",2.5,849,2020-09-23
4912,Sold,natealex,Carlini8,1.70Ξ ($639),"Sep 14, 2020",1.7,639,2020-09-14
4912,Sold,Pranksy,natealex,1.25Ξ ($460),"Sep 11, 2020",1.25,460,2020-09-11
4912,Sold,0x470e9b,Pranksy,1.15Ξ ($204),"Jan 18, 2020",1.15,204,2020-01-18
4913,Sold,Cyborg,0x560b92,0.33Ξ ($63),"Jul 11, 2017",0.33,63,2017-07-11
4915,Sold,0xd97f99,CryptoPa…,"4.60Ξ ($6,108)","Jan 21, 2021",4.6,6108,2021-01-21
4915,Sold,6373D,0xd97f99,"3.10Ξ ($2,006)","Dec 18, 2020",3.1,2006,2020-12-18
4915,Sold,0x4322d6,6373D,"2.25Ξ ($1,330)","Dec 06, 2020",2.25,1330,2020-12-06
4915,Sold,Cyborg,0x4322d6,0.20Ξ ($19),"Dec 07, 2018",0.2,19,2018-12-07
4916,Sold,1723665,15848961,"25.50Ξ ($48,170)","Mar 13, 2021",25.5,48170,2021-03-13
4916,Sold,3392101,1723665,"23.49Ξ ($43,232)","Mar 11, 2021",23.49,43232,2021-03-11
4916,Sold,6249972,3392101,"21.50Ξ ($38,245)","Mar 11, 2021",21.5,38245,2021-03-11
4918,Sold,0x_NFT,Plinythe…,"3.80Ξ ($1,558)","Oct 25, 2020",3.8,1558,2020-10-25
4918,Sold,0x51357b,0x_NFT,"3.75Ξ ($1,293)","Sep 25, 2020",3.75,1293,2020-09-25
4918,Sold,Hemba,0x51357b,1.50Ξ ($551),"Sep 11, 2020",1.5,551,2020-09-11
4919,Sold,55241,16075408,0.25Ξ ($48),"Aug 22, 2019",0.25,48,2019-08-22
4920,Sold,GoWest23,whiterab…,"5.50Ξ ($2,112)","Sep 18, 2020",5.5,2112,2020-09-18
4920,Sold,Pranksy,GoWest23,0.75Ξ ($101),"Jan 04, 2020",0.75,101,2020-01-04
4920,Sold,ark1,Pranksy,0.35Ξ ($74),"Jul 29, 2019",0.35,74,2019-07-29
4920,Sold,0x00d7c9,ark1,0.40Ξ ($70),"Apr 20, 2019",0.4,70,2019-04-20
4922,Sold,55241,7435267,0.05Ξ ($26),"May 28, 2018",0.05,26,2018-05-28
4923,Sold,renaissa…,0x48db19,"22.39Ξ ($42,005)","Feb 22, 2021",22.39,42005,2021-02-22
4923,Sold,Alex3422,renaissa…,"3.89Ξ ($1,326)","Sep 25, 2020",3.89,1326,2020-09-25
4923,Sold,natealex,Alex3422,"2.75Ξ ($1,034)","Sep 14, 2020",2.75,1034,2020-09-14
4923,Sold,DANNY,natealex,1.40Ξ ($294),"May 20, 2020",1.4,294,2020-05-20
4923,Sold,Hemba,DANNY,1Ξ ($202),"May 14, 2020",1,202,2020-05-14
4924,Sold,Pranksy,capital_…,"7.50Ξ ($1,708)","Jul 05, 2020",7.5,1708,2020-07-05
4924,Sold,0xc352b5,Pranksy,"8Ξ ($1,647)","May 27, 2020",8,1647,2020-05-27
4926,Sold,0xc272ed,6345309,"45Ξ ($82,179)","Mar 11, 2021",45,82179,2021-03-11
4929,Sold,0xa3cb30,7097068,"15.50Ξ ($33,048)","Apr 06, 2021",15.5,33048,2021-04-06
4930,Sold,pinkiepi…,Novo311,"5.30Ξ ($3,278)","Dec 23, 2020",5.3,3278,2020-12-23
4930,Sold,Dude_Nak…,0x257e2b,"6.99Ξ ($2,639)","Oct 15, 2020",6.99,2639,2020-10-15
4930,Sold,Thing,Dude_Nak…,"7.19Ξ ($2,531)","Oct 05, 2020",7.19,2531,2020-10-05
4930,Sold,GoWest23,Thing,"7.05Ξ ($2,560)","Sep 28, 2020",7.05,2560,2020-09-28
4930,Sold,0x19f233,GoWest23,0.50Ξ ($67),"Jan 04, 2020",0.5,67,2020-01-04
4932,Sold,Michel_M…,0x052564,"3.85Ξ ($1,332)","Sep 24, 2020",3.85,1332,2020-09-24
4932,Sold,Sylveste…,Michel_M…,1.99Ξ ($759),"Sep 20, 2020",1.99,759,2020-09-20
4932,Sold,DANNY,Sylveste…,2Ξ ($753),"Sep 15, 2020",2,753,2020-09-15
4932,Sold,Hemba,DANNY,1.10Ξ ($222),"May 14, 2020",1.1,222,2020-05-14
4933,Sold,0xe754d1,gaus,"2.95Ξ ($1,047)","Sep 26, 2020",2.95,1047,2020-09-26
4933,Sold,Pranksy,0xe754d1,2.89Ξ ($994),"Sep 25, 2020",2.89,994,2020-09-25
4933,Sold,Hemba,Pranksy,2.30Ξ ($796),"Sep 24, 2020",2.3,796,2020-09-24
4938,Sold,11579573,Snowfro,0.33Ξ ($53),"Feb 23, 2019",0.33,53,2019-02-23
4939,Sold,Pranksy,ddaavvee,2.19Ξ ($736),"Sep 24, 2020",2.19,736,2020-09-24
4939,Sold,Hemba,Pranksy,1.80Ξ ($613),"Sep 22, 2020",1.8,613,2020-09-22
4940,Sold,0xaea8e3,8769867,"69.99Ξ ($148,813)","Apr 11, 2021",69.99,148813,2021-04-11
4940,Sold,0xe03559,11446499,"40Ξ ($62,304)","Mar 02, 2021",40,62304,2021-03-02
4941,Sold,0x09d408,0x769eec,"24.99Ξ ($51,576)","Apr 08, 2021",24.99,51576,2021-04-08
4941,Sold,0x6ec30f,0x09d408,"23.97Ξ ($43,105)","Mar 21, 2021",23.97,43105,2021-03-21
4941,Sold,0x29b1b2,0x6ec30f,"24.30Ξ ($44,014)","Mar 17, 2021",24.3,44014,2021-03-17
4941,Sold,Fanny,0x29b1b2,"30Ξ ($49,467)","Feb 24, 2021",30,49467,2021-02-24
4941,Sold,0xb0b0b5,Fanny,0.39Ξ ($61),"Jan 04, 2019",0.39,61,2019-01-04
4942,Sold,0x0a4eaf…,CryptoPa…,"4.17Ξ ($5,635)","Jan 21, 2021",4.17,5635,2021-01-21
4942,Sold,0xc00c2b,0x0a4eaf…,0.27Ξ ($56),"Aug 13, 2019",0.27,56,2019-08-13
4943,Sold,Hemba,0xd8e806,0.45Ξ ($92),"Jul 13, 2017",0.45,92,2017-07-13
4945,Sold,👨🏻‍🌾.…,0xaf812e,"25Ξ ($51,597)","Apr 08, 2021",25,51597,2021-04-08
4945,Sold,0x07c5ea,👨🏻‍🌾.…,"14.75Ξ ($26,824)","Feb 14, 2021",14.75,26824,2021-02-14
4945,Sold,Deeze,0x34e801,"8.99Ξ ($11,834)","Feb 01, 2021",8.99,11834,2021-02-01
4945,Sold,0x5b098b,Deeze,"7.45Ξ ($9,390)","Jan 27, 2021",7.45,9390,2021-01-27
4946,Sold,11579573,5966219,0.38Ξ ($41),"Nov 26, 2018",0.38,41,2018-11-26
4948,Sold,1742511,Ravachol,0.56Ξ ($108),"Apr 27, 2020",0.56,108,2020-04-27
4951,Sold,W_M_Peas…,0x568cf5,"5.75Ξ ($2,088)","Sep 28, 2020",5.75,2088,2020-09-28
4951,Sold,Pranksy,W_M_Peas…,"4.79Ξ ($1,742)","Sep 28, 2020",4.79,1742,2020-09-28
4951,Sold,zonted,Pranksy,"3.95Ξ ($1,413)","Sep 28, 2020",3.95,1413,2020-09-28
4951,Sold,Pranksy,zonted,2.75Ξ ($949),"Sep 25, 2020",2.75,949,2020-09-25
4951,Sold,Hemba,Pranksy,2.30Ξ ($796),"Sep 24, 2020",2.3,796,2020-09-24
4953,Sold,8533182,10135275,0.15Ξ ($58),"Apr 07, 2018",0.15,58,2018-04-07
4955,Sold,MadMax,0x07adba,"15.55Ξ ($30,357)","Feb 21, 2021",15.55,30357,2021-02-21
4955,Sold,0xccc230,MadMax,"8Ξ ($15,462)","Feb 21, 2021",8,15462,2021-02-21
4956,Sold,SenecaEt…,0x5293d8,"6Ξ ($7,603)","Jan 09, 2021",6,7603,2021-01-09
4956,Sold,0xcbdde8,SenecaEt…,"5Ξ ($1,838)","Oct 17, 2020",5,1838,2020-10-17
4956,Sold,0x00d7c9,KittyGr_…,0.10Ξ ($60),"Jun 08, 2018",0.1,60,2018-06-08
4957,Sold,0x4affe1,0x14ae81,"25.95Ξ ($49,546)","Mar 13, 2021",25.95,49546,2021-03-13
4957,Sold,0x48d1f7,0x4affe1,"22.50Ξ ($34,052)","Mar 01, 2021",22.5,34052,2021-03-01
4957,Sold,MadMax,0x48d1f7,"28.75Ξ ($51,272)","Feb 22, 2021",28.75,51272,2021-02-22
4957,Sold,0xb10004,MadMax,"25Ξ ($44,047)","Feb 22, 2021",25,44047,2021-02-22
4957,Sold,0x967ee5,0xb10004,"14Ξ ($25,188)","Feb 16, 2021",14,25188,2021-02-16
4957,Sold,0x6f4a2d,0x967ee5,"12Ξ ($20,902)","Feb 15, 2021",12,20902,2021-02-15
4960,Sold,0x11c9a7,gaus,"3.40Ξ ($1,219)","Sep 28, 2020",3.4,1219,2020-09-28
4960,Sold,0x3ba9cd,0x11c9a7,"3.05Ξ ($1,078)","Sep 27, 2020",3.05,1078,2020-09-27
4960,Sold,0xe754d1,0x3ba9cd,2.10Ξ ($712),"Sep 23, 2020",2.1,712,2020-09-23
4960,Sold,OnlyToas…,0xe754d1,1.80Ξ ($686),"Sep 17, 2020",1.8,686,2020-09-17
4960,Sold,Carlini8,OnlyToas…,2.18Ξ ($815),"Sep 14, 2020",2.18,815,2020-09-14
4960,Sold,CPyrc,Carlini8,1.99Ξ ($748),"Sep 14, 2020",1.99,748,2020-09-14
4960,Sold,BitcoinG…,CPyrc,0.94Ξ ($371),"Aug 07, 2020",0.94,371,2020-08-07
4960,Sold,cloudwhi…,ManOverb…,1Ξ ($236),"Jun 13, 2020",1,236,2020-06-13
4960,Sold,0x70e194,cloudwhi…,1Ξ ($202),"May 22, 2020",1,202,2020-05-22
4960,Sold,0x00d7c9,0x70e194,0.10Ξ ($85),"Feb 23, 2018",0.1,85,2018-02-23
4961,Sold,Hemba,An111,0.10Ξ ($104),"Jan 19, 2018",0.1,104,2018-01-19
4962,Sold,Hemba,Catdog,0.60Ξ ($119),"May 14, 2020",0.6,119,2020-05-14
4963,Sold,0x3a4930,0x7e86d5,"34Ξ ($72,291)","Apr 11, 2021",34,72291,2021-04-11
4963,Sold,Hemba,0x3a4930,1Ξ ($387),"Aug 26, 2020",1,387,2020-08-26
4964,Sold,1700403,5949846,"23Ξ ($34,684)","Feb 25, 2021",23,34684,2021-02-25
4965,Sold,Loopify,0x0f4bc9,"20.50Ξ ($42,848)","Apr 10, 2021",20.5,42848,2021-04-10
4965,Sold,0x4ea36c,Loopify,"18.87Ξ ($40,260)","Apr 10, 2021",18.87,40260,2021-04-10
4965,Sold,0xc2b3cb,0x0872e7,"27.50Ξ ($50,824)","Mar 14, 2021",27.5,50824,2021-03-14
4965,Sold,0xa3cb30,0xc2b3cb,"26.50Ξ ($46,708)","Mar 12, 2021",26.5,46708,2021-03-12
4966,Sold,55241,14272451,0.25Ξ ($53),"Aug 12, 2019",0.25,53,2019-08-12
4968,Sold,0x1a1f01,0xead28e,"22.39Ξ ($40,317)","Mar 16, 2021",22.39,40317,2021-03-16
4968,Sold,0x7bd7b8,0x1a1f01,"21.12Ξ ($38,226)","Mar 11, 2021",21.12,38226,2021-03-11
4968,Sold,point-gr…,0x7bd7b8,"21.50Ξ ($40,314)","Feb 22, 2021",21.5,40314,2021-02-22
4968,Sold,0x553026,point-gr…,"20Ξ ($37,633)","Feb 22, 2021",20,37633,2021-02-22
4968,Sold,0x1a96af,0x553026,1.21Ξ ($241),"May 26, 2020",1.21,241,2020-05-26
4969,Sold,10734384,5786847,"26.50Ξ ($45,166)","Mar 23, 2021",26.5,45166,2021-03-23
4969,Sold,5331586,48543,0.12Ξ ($35),"Jun 29, 2017",0.12,35,2017-06-29
4970,Sold,55241,7435267,0.05Ξ ($26),"May 28, 2018",0.05,26,2018-05-28
4971,Sold,jmg,PB,0.49Ξ ($131),"May 26, 2019",0.49,131,2019-05-26
4971,Sold,0x5b098b,0x00bd3a,0.30Ξ ($86),"Jun 27, 2017",0.3,86,2017-06-27
4975,Sold,10074244,11644366,"7Ξ ($11,955)","Feb 08, 2021",7,11955,2021-02-08
4976,Sold,Carlini8,0xcd2c66,1Ξ ($232),"Jul 02, 2020",1,232,2020-07-02
4976,Sold,trislit,Carlini8,1.20Ξ ($241),"May 26, 2020",1.2,241,2020-05-26
4976,Sold,0xb0b0b5,trislit,0.31Ξ ($38),"Feb 16, 2019",0.31,38,2019-02-16
4977,Sold,Pixls,Kataster…,1Ξ ($161),"Jan 16, 2020",1,161,2020-01-16
4977,Sold,0x87e225,Pixls,0.48Ξ ($65),"Dec 30, 2019",0.48,65,2019-12-30
4977,Sold,0x00d7c9,0x87e225,0.30Ξ ($66),"Jul 31, 2019",0.3,66,2019-07-31
4978,Sold,Kataster…,0xc1d1d3,"18.25Ξ ($30,355)","Mar 23, 2021",18.25,30355,2021-03-23
4978,Sold,Pranksy,Kataster…,0.44Ξ ($66),"Dec 08, 2019",0.44,66,2019-12-08
4978,Sold,0x00d7c9,Pranksy,0.25Ξ ($45),"Sep 02, 2019",0.25,45,2019-09-02
4982,Sold,10734384,3478784,"19.99Ξ ($36,853)","Mar 30, 2021",19.99,36853,2021-03-30
4985,Sold,Pranksy,CryptoIn…,2.55Ξ ($535),"May 20, 2020",2.55,535,2020-05-20
4985,Sold,grake,Pranksy,1.75Ξ ($369),"May 19, 2020",1.75,369,2020-05-19
4985,Sold,0x22ff03,grake,1.30Ξ ($210),"Jan 25, 2020",1.3,210,2020-01-25
4986,Sold,3026470,9399070,"24Ξ ($46,391)","Feb 21, 2021",24,46391,2021-02-21
4986,Sold,11579573,3026470,0.29Ξ ($34),"Dec 20, 2018",0.29,34,2018-12-20
4988,Sold,Pranksy,stazie,0.50Ξ ($64),"Dec 20, 2019",0.5,64,2019-12-20
4988,Sold,0x00d7c9,Pranksy,0.25Ξ ($45),"Sep 02, 2019",0.25,45,2019-09-02
4989,Sold,0xf0f068…,0xca105c,2.55Ξ ($992),"Aug 26, 2020",2.55,992,2020-08-26
4989,Sold,Pranksy,0xf0f068…,0.48Ξ ($64),"Dec 22, 2019",0.48,64,2019-12-22
4989,Sold,ark1,Pranksy,0.30Ξ ($63),"Jul 28, 2019",0.3,63,2019-07-28
4989,Sold,0x00d7c9,ark1,0.35Ξ ($61),"Apr 20, 2019",0.35,61,2019-04-20
4990,Sold,0xd8e806,0x96b48f,0.21Ξ ($65),"Aug 12, 2017",0.21,65,2017-08-12
4990,Sold,Hemba,0xd8e806,0.42Ξ ($86),"Jul 13, 2017",0.42,86,2017-07-13
4991,Sold,0x8234be,Pixls,0.40Ξ ($56),"Mar 27, 2019",0.4,56,2019-03-27
4993,Sold,Hemba,0x5b098b,0.14Ξ ($15),"Dec 04, 2018",0.14,15,2018-12-04
4994,Sold,0xb73d34,0x7f6af0,"21.98Ξ ($41,856)","Mar 14, 2021",21.98,41856,2021-03-14
4994,Sold,0x7f30d6,0xb73d34,"18.50Ξ ($33,867)","Mar 09, 2021",18.5,33867,2021-03-09
4994,Sold,0x3e17fa,0x7f30d6,"8.30Ξ ($15,102)","Feb 16, 2021",8.3,15102,2021-02-16
4994,Sold,0xe5e771,0x3e17fa,"3Ξ ($1,061)","Sep 26, 2020",3,1061,2020-09-26
4994,Sold,Michel_M…,0xe5e771,2.10Ξ ($721),"Sep 23, 2020",2.1,721,2020-09-23
4994,Sold,Hemba,Michel_M…,1.30Ξ ($313),"Jun 03, 2020",1.3,313,2020-06-03
4995,Sold,MrTpunks…,0x2b47c5,"6Ξ ($2,112)","Sep 27, 2020",6,2112,2020-09-27
4995,Sold,CPyrc,MrTpunks…,"4.75Ξ ($1,643)","Sep 24, 2020",4.75,1643,2020-09-24
4995,Sold,Pranksy,CPyrc,"4Ξ ($1,538)","Sep 19, 2020",4,1538,2020-09-19
4995,Sold,0xded2cb,evkort,"5Ξ ($1,882)","Sep 15, 2020",5,1882,2020-09-15
4996,Sold,6689278,16740588,"29Ξ ($51,521)","Mar 29, 2021",29,51521,2021-03-29
4996,Sold,5331586,6689278,0.41Ξ ($97),"Jul 09, 2017",0.41,97,2017-07-09
4998,Sold,stoic,0x072269,"4.69Ξ ($5,743)","Jan 08, 2021",4.69,5743,2021-01-08
4998,Sold,0x00d7c9,stoic,0.30Ξ ($81),"Jul 13, 2019",0.3,81,2019-07-13
4999,Sold,Hemba,0x2e50b2,1.50Ξ ($361),"Jul 13, 2020",1.5,361,2020-07-13
5000,Sold,11124649,7435267,0.30Ξ ($67),"Aug 03, 2017",0.3,67,2017-08-03
5001,Sold,Zieg,0xd27e3f,1.20Ξ ($247),"Jul 29, 2017",1.2,247,2017-07-29
5002,Sold,0x4960c4…,BumFun69,"49Ξ ($11,542)","Jun 01, 2020",49,11542,2020-06-01
5002,Sold,0x8ba3e2,0x4960c4…,0.26Ξ ($88),"Oct 13, 2017",0.26,88,2017-10-13
5004,Sold,0xa5c80b,droscott…,"25Ξ ($45,716)","Feb 22, 2021",25,45716,2021-02-22
5004,Sold,0x4960c4…,0xa5c80b,"5.95Ξ ($4,384)","Dec 31, 2020",5.95,4384,2020-12-31
5004,Sold,ChrisR,0x4960c4…,0.84Ξ ($327),"Aug 05, 2020",0.84,327,2020-08-05
5004,Sold,0x00d7c9,Pranksy,0.25Ξ ($53),"Aug 12, 2019",0.25,53,2019-08-12
5005,Sold,Carlini8,0x1e243e,"14.99Ξ ($28,779)","Feb 19, 2021",14.99,28779,2021-02-19
5005,Sold,0xa3cb30,Carlini8,"12.50Ξ ($21,370)","Feb 15, 2021",12.5,21370,2021-02-15
5006,Sold,10734384,16548035,"19.99Ξ ($36,853)","Mar 30, 2021",19.99,36853,2021-03-30
5007,Sold,48543,7823584,0.32Ξ ($88),"Jul 03, 2017",0.32,88,2017-07-03
5008,Sold,0x577ebc,9155827,"8Ξ ($11,458)","Feb 02, 2021",8,11458,2021-02-02
5010,Sold,0xa3cb30,jmg,"8Ξ ($2,906)","Oct 09, 2020",8,2906,2020-10-09
5011,Sold,0x84c920,0xb5b84e,"29Ξ ($46,716)","Feb 24, 2021",29,46716,2021-02-24
5011,Sold,CPyrc,0x84c920,"19Ξ ($37,123)","Feb 21, 2021",19,37123,2021-02-21
5011,Sold,Theodora,CPyrc,"13.40Ξ ($24,731)","Feb 17, 2021",13.4,24731,2021-02-17
5011,Sold,Michel_M…,Theodora,0.95Ξ ($330),"Sep 06, 2020",0.95,330,2020-09-06
5011,Sold,_K_A_M_I…,Michel_M…,1Ξ ($317),"Jul 28, 2020",1,317,2020-07-28
5011,Sold,TweetyPi…,_K_A_M_I…,2.20Ξ ($452),"May 28, 2020",2.2,452,2020-05-28
5011,Sold,Hemba,TweetyPi…,1.75Ξ ($355),"May 27, 2020",1.75,355,2020-05-27
5012,Sold,0x2fdacd,2698614,"5Ξ ($5,501)","Jan 13, 2021",5,5501,2021-01-13
5013,Sold,11844417,10274288,"34.99Ξ ($56,953)","Feb 24, 2021",34.99,56953,2021-02-24
5013,Sold,8678741,11844417,"25Ξ ($38,209)","Feb 23, 2021",25,38209,2021-02-23
5014,Sold,0xf1b658,13052653,"7Ξ ($9,138)","Jan 20, 2021",7,9138,2021-01-20
5014,Sold,0x2fdacd,5976862,"6Ξ ($6,616)","Jan 13, 2021",6,6616,2021-01-13
5018,Sold,0x13816f,0x0e6167,"14.88Ξ ($29,357)","Feb 21, 2021",14.88,29357,2021-02-21
5018,Sold,Loopify,0x13816f,"3.60Ξ ($1,284)","Sep 28, 2020",3.6,1284,2020-09-28
5018,Sold,0x3ba9cd,Loopify,"3.15Ξ ($1,110)","Sep 27, 2020",3.15,1110,2020-09-27
5018,Sold,Carlini8,0x3ba9cd,2Ξ ($679),"Sep 23, 2020",2,679,2020-09-23
5018,Sold,Hemba,Carlini8,1.45Ξ ($545),"Sep 14, 2020",1.45,545,2020-09-14
5019,Sold,0xb0b0b5,dclwande…,0.27Ξ ($225),"Feb 24, 2018",0.27,225,2018-02-24
5020,Sold,NeonNFT,0x568cf5,"5.70Ξ ($2,016)","Sep 29, 2020",5.7,2016,2020-09-29
5020,Sold,0x69405f,NeonNFT,"5.40Ξ ($1,915)","Sep 29, 2020",5.4,1915,2020-09-29
5020,Sold,0x7c18fd,0x69405f,"5.30Ξ ($1,880)","Sep 29, 2020",5.3,1880,2020-09-29
5020,Sold,0x3ba9cd,0x7c18fd,"5.25Ξ ($1,904)","Sep 28, 2020",5.25,1904,2020-09-28
5020,Sold,Carlini8,0x3ba9cd,2Ξ ($679),"Sep 23, 2020",2,679,2020-09-23
5020,Sold,0x4322d6,Carlini8,1.37Ξ ($515),"Sep 14, 2020",1.37,515,2020-09-14
5020,Sold,0xb0b0b5,0x4322d6,0.18Ξ ($17),"Dec 07, 2018",0.18,17,2018-12-07
5021,Sold,3699717,3749640,"4.59Ξ ($5,141)","Jan 11, 2021",4.59,5141,2021-01-11
5022,Sold,Hemba,Snowfro,0.90Ξ ($322),"Sep 06, 2020",0.9,322,2020-09-06
5023,Sold,Hemba,0x7f6ca7,0.08Ξ ($91),"Jan 11, 2018",0.08,91,2018-01-11
5028,Sold,0xd4442b,TweetyPi…,"17.60Ξ ($36,380)","Apr 08, 2021",17.6,36380,2021-04-08
5028,Sold,0x175da1,0xd4442b,"16.40Ξ ($33,899)","Apr 08, 2021",16.4,33899,2021-04-08
5028,Sold,0x033ee7,0x175da1,"6.42Ξ ($11,577)","Feb 13, 2021",6.42,11577,2021-02-13
5028,Sold,MrNFT,0x033ee7,2.87Ξ ($993),"Sep 24, 2020",2.87,993,2020-09-24
5028,Sold,Pranksy,MrNFT,2.19Ξ ($757),"Sep 24, 2020",2.19,757,2020-09-24
5028,Sold,Hemba,Pranksy,1.80Ξ ($613),"Sep 22, 2020",1.8,613,2020-09-22
5029,Sold,12586027,9876623,0.19Ξ ($59),"Aug 12, 2017",0.19,59,2017-08-12
5033,Sold,13127749,15615250,"8Ξ ($14,765)","Feb 14, 2021",8,14765,2021-02-14
5039,Sold,0x6611fe,1760370,"21.25Ξ ($37,974)","Mar 21, 2021",21.25,37974,2021-03-21
5040,Sold,6471110,486676,"19.97Ξ ($36,142)","Mar 29, 2021",19.97,36142,2021-03-29
5040,Sold,755965,6471110,"22.50Ξ ($38,351)","Mar 23, 2021",22.5,38351,2021-03-23
5045,Sold,11579573,7435267,0.12Ξ ($37),"Sep 28, 2017",0.12,37,2017-09-28
5046,Sold,6689278,TokenAng…,0.55Ξ ($120),"Aug 03, 2019",0.55,120,2019-08-03
5050,Sold,ddaavvee,beautifu…,"50.50Ξ ($82,086)","Mar 03, 2021",50.5,82086,2021-03-03
5052,Sold,755965,5110467,"22.49Ξ ($37,407)","Mar 23, 2021",22.49,37407,2021-03-23
5056,Sold,0xc352b5,48543,0.10Ξ ($33),"Jun 23, 2017",0.1,33,2017-06-23
5058,Sold,0xb3958c,5333848,"13Ξ ($26,835)","Apr 04, 2021",13,26835,2021-04-04
5058,Sold,0x6611fe,146321,"8.70Ξ ($15,179)","Feb 16, 2021",8.7,15179,2021-02-16
5062,Sold,TokenAng…,0x88a679,"21Ξ ($39,777)","Feb 21, 2021",21,39777,2021-02-21
5062,Sold,kriptoga…,TokenAng…,"17Ξ ($32,593)","Feb 20, 2021",17,32593,2021-02-20
5062,Sold,0x2bcbbd,kriptoga…,0.50Ξ ($102),"Oct 26, 2018",0.5,102,2018-10-26
5065,Sold,0xc3baaa,tencent,"4.65Ξ ($4,972)","Jan 05, 2021",4.65,4972,2021-01-05
5065,Sold,NeonNFT,0xd27aa6,"3.50Ξ ($1,412)","Nov 05, 2020",3.5,1412,2020-11-05
5065,Sold,0x35d8d9,NeonNFT,"4Ξ ($1,584)","Oct 21, 2020",4,1584,2020-10-21
5065,Sold,Hemba,0xc717fc,1.40Ξ ($540),"Sep 13, 2020",1.4,540,2020-09-13
5066,Sold,Snowfro,capital_…,"50Ξ ($18,354)","Sep 15, 2020",50,18354,2020-09-15
5070,Sold,5550452,4926050,"15.40Ξ ($31,755)","Apr 05, 2021",15.4,31755,2021-04-05
5070,Sold,11769228,5550452,"13.75Ξ ($28,227)","Apr 04, 2021",13.75,28227,2021-04-04
5070,Sold,12426802,146321,"8.35Ξ ($15,169)","Feb 15, 2021",8.35,15169,2021-02-15
5070,Sold,6689278,12426802,"6Ξ ($11,162)","Feb 13, 2021",6,11162,2021-02-13
5074,Sold,10734384,7348023,"9.50Ξ ($16,341)","Feb 15, 2021",9.5,16341,2021-02-15
5075,Sold,EliteCat…,0x8bb4f3,"9.09Ξ ($15,688)","Feb 10, 2021",9.09,15688,2021-02-10
5075,Sold,0x1fd927,GoWest23,0.90Ξ ($146),"Jan 16, 2020",0.9,146,2020-01-16
5075,Sold,0x2bcbbd,0x1fd927,0.50Ξ ($101),"Oct 24, 2018",0.5,101,2018-10-24
5077,Sold,👁‍🗨👁‍…,valko.et…,"20.88Ξ ($44,981)","Apr 12, 2021",20.88,44981,2021-04-12
5077,Sold,point-gr…,👁‍🗨👁‍…,"19.99Ξ ($41,612)","Apr 09, 2021",19.99,41612,2021-04-09
5077,Sold,Pranksy,gaus,2.75Ξ ($949),"Sep 25, 2020",2.75,949,2020-09-25
5077,Sold,Hemba,Pranksy,2.30Ξ ($796),"Sep 24, 2020",2.3,796,2020-09-24
5078,Sold,0x566f19,0xd71a41,"5Ξ ($5,988)","Jan 06, 2021",5,5988,2021-01-06
5078,Sold,moderats,0x566f19,"4.50Ξ ($5,389)","Jan 06, 2021",4.5,5389,2021-01-06
5078,Sold,Pranksy,moderats,1.90Ξ ($709),"Sep 14, 2020",1.9,709,2020-09-14
5078,Sold,Alley,Pranksy,1.75Ξ ($659),"Sep 14, 2020",1.75,659,2020-09-14
5078,Sold,Hemba,Alley,0.49Ξ ($84),"May 09, 2019",0.49,84,2019-05-09
5079,Sold,55241,9876623,0.05Ξ ($28),"May 29, 2018",0.05,28,2018-05-29
5080,Sold,PlantDr,0xb0161d,"15Ξ ($27,526)","Feb 17, 2021",15,27526,2021-02-17
5080,Sold,Hemba,Sylveste…,0.52Ξ ($87),"May 03, 2019",0.52,87,2019-05-03
5083,Sold,0x65ba4f,12604552,"40Ξ ($72,582)","Mar 08, 2021",40,72582,2021-03-08
5083,Sold,0xfba169,6666831,"36Ξ ($48,578)","Feb 28, 2021",36,48578,2021-02-28
5084,Sold,Cyborg,0x870a9d,0.40Ξ ($108),"Jul 04, 2017",0.4,108,2017-07-04
5087,Sold,7293485,0x22fa8c,"23Ξ ($39,894)","Feb 22, 2021",23,39894,2021-02-22
5088,Sold,10074244,6383565,"5.75Ξ ($9,450)","Feb 03, 2021",5.75,9450,2021-02-03
5089,Sold,0xddb92a,0x961d63,"17.50Ξ ($26,786)","Mar 05, 2021",17.5,26786,2021-03-05
5089,Sold,0x2b47c5,0xddb92a,"13.33Ξ ($24,690)","Feb 17, 2021",13.33,24690,2021-02-17
5089,Sold,Pranksy,madness,"3.49Ξ ($1,231)","Sep 27, 2020",3.49,1231,2020-09-27
5089,Sold,0x5aaeb9,Pranksy,2.29Ξ ($792),"Sep 24, 2020",2.29,792,2020-09-24
5089,Sold,Pranksy,0x5aaeb9,2.19Ξ ($757),"Sep 24, 2020",2.19,757,2020-09-24
5089,Sold,Hemba,Pranksy,1.80Ξ ($613),"Sep 22, 2020",1.8,613,2020-09-22
5090,Sold,0x65ba4f,0x0e6167,"14.80Ξ ($29,199)","Feb 21, 2021",14.8,29199,2021-02-21
5090,Sold,0x0d7794,0x65ba4f,"12.80Ξ ($24,213)","Feb 18, 2021",12.8,24213,2021-02-18
5090,Sold,0x13816f,0x0d7794,"8.45Ξ ($14,659)","Feb 16, 2021",8.45,14659,2021-02-16
5090,Sold,GoWest23,0x13816f,"4.60Ξ ($1,678)","Sep 28, 2020",4.6,1678,2020-09-28
5090,Sold,Hemba,GoWest23,0.44Ξ ($76),"May 06, 2019",0.44,76,2019-05-06
5091,Sold,10734384,53919,"27.99Ξ ($48,982)","Mar 17, 2021",27.99,48982,2021-03-17
5092,Sold,0x5d6f25,16773553,0.50Ξ ($152),"Sep 04, 2017",0.5,152,2017-09-04
5093,Sold,0xa3cb30,beautifu…,"45Ξ ($81,997)","Mar 09, 2021",45,81997,2021-03-09
5094,Sold,Cyborg,0x6611fe,0.35Ξ ($94),"Jul 04, 2017",0.35,94,2017-07-04
5096,Sold,0xa3cb30,934967,"34.50Ξ ($62,299)","Mar 19, 2021",34.5,62299,2021-03-19
5097,Sold,0x58164b,Kenney,0.10Ξ ($70),"Apr 24, 2018",0.1,70,2018-04-24
5098,Sold,wookie.e…,0x50664e,"19Ξ ($34,443)","Mar 11, 2021",19,34443,2021-03-11
5098,Sold,Pranksy,gaus,2.75Ξ ($949),"Sep 25, 2020",2.75,949,2020-09-25
5098,Sold,Hemba,Pranksy,2.30Ξ ($796),"Sep 24, 2020",2.3,796,2020-09-24
5101,Sold,0x701f37,wookie.e…,"44Ξ ($75,548)","Mar 08, 2021",44,75548,2021-03-08
5101,Sold,oref,0xe5e771,"8Ξ ($2,816)","Sep 27, 2020",8,2816,2020-09-27
5101,Sold,0x48db19,oref,"4.89Ξ ($1,850)","Sep 15, 2020",4.89,1850,2020-09-15
5104,Sold,48442,10774949,0.19Ξ ($53),"Jun 30, 2017",0.19,53,2017-06-30
5105,Sold,0xca63cd,willholt…,"22Ξ ($45,474)","Apr 08, 2021",22,45474,2021-04-08
5105,Sold,Pixls,0xca63cd,"22Ξ ($41,594)","Mar 14, 2021",22,41594,2021-03-14
5105,Sold,0x4c7ca4,Pixls,0.28Ξ ($33),"Jan 20, 2019",0.28,33,2019-01-20
5105,Sold,0x126619,0xc00c2b,0.28Ξ ($64),"Jul 18, 2017",0.28,64,2017-07-18
5106,Sold,0x126619,12893633,0.13Ξ ($34),"Sep 21, 2017",0.13,34,2017-09-21
5107,Sold,Pranksy,TokenAng…,0.45Ξ ($78),"Sep 05, 2019",0.45,78,2019-09-05
5107,Sold,0x00d7c9,Pranksy,0.25Ξ ($45),"Sep 02, 2019",0.25,45,2019-09-02
5110,Sold,10734384,4301769,"28.99Ξ ($49,413)","Mar 23, 2021",28.99,49413,2021-03-23
5115,Sold,0x19f233,7823584,0.05Ξ ($58),"Jan 11, 2018",0.05,58,2018-01-11
5116,Sold,0xf1ad94,16037029,"100Ξ ($174,158)","Mar 12, 2021",100,174158,2021-03-12
5117,Sold,Hemba,0x27c79a,1.25Ξ ($259),"May 23, 2020",1.25,259,2020-05-23
5120,Sold,MrTpunks,beautifu…,"35Ξ ($73,513)","Apr 05, 2021",35,73513,2021-04-05
5120,Sold,0xe45df5,MrTpunks…,1.50Ξ ($204),"Jan 10, 2020",1.5,204,2020-01-10
5122,Sold,Zonked,azkaban,"4.88Ξ ($4,790)","Jan 11, 2021",4.88,4790,2021-01-11
5122,Sold,Pranksy,gaus,2.75Ξ ($949),"Sep 25, 2020",2.75,949,2020-09-25
5122,Sold,Hemba,Pranksy,2.30Ξ ($796),"Sep 24, 2020",2.3,796,2020-09-24
5123,Sold,8642785,13135821,"23.99Ξ ($36,244)","Mar 03, 2021",23.99,36244,2021-03-03
5123,Sold,4774681,8642785,"21.90Ξ ($42,004)","Feb 22, 2021",21.9,42004,2021-02-22
5126,Sold,MadMax,0x34f4ad,2.29Ξ ($872),"Sep 20, 2020",2.29,872,2020-09-20
5126,Sold,0x3a8441,MadMax,1Ξ ($228),"Jun 30, 2020",1,228,2020-06-30
5128,Sold,Pranksy,0xf40b3d,2.89Ξ ($998),"Sep 25, 2020",2.89,998,2020-09-25
5128,Sold,Hemba,Pranksy,2.30Ξ ($796),"Sep 24, 2020",2.3,796,2020-09-24
5130,Sold,55241,7435267,0.12Ξ ($36),"Oct 26, 2017",0.12,36,2017-10-26
5131,Sold,0x13816f,0x0ebd1a,"9.85Ξ ($17,409)","Feb 17, 2021",9.85,17409,2021-02-17
5131,Sold,0x067034,0x13816f,"4Ξ ($1,433)","Sep 28, 2020",4,1433,2020-09-28
5131,Sold,Carlini8,0x067034,"4Ξ ($1,513)","Sep 19, 2020",4,1513,2020-09-19
5131,Sold,0x11c9a7,Carlini8,1.98Ξ ($726),"Sep 15, 2020",1.98,726,2020-09-15
5131,Sold,Pranksy,0x11c9a7,1.88Ξ ($696),"Sep 15, 2020",1.88,696,2020-09-15
5131,Sold,cryptosa…,Pranksy,1.75Ξ ($659),"Sep 14, 2020",1.75,659,2020-09-14
5131,Sold,Hemba,cryptosa…,1.45Ξ ($299),"May 27, 2020",1.45,299,2020-05-27
5132,Sold,0x577ebc,6747862,"65Ξ ($124,105)","Mar 13, 2021",65,124105,2021-03-13
5133,Sold,j1mmy,lemondro…,"5.95Ξ ($2,092)","Oct 05, 2020",5.95,2092,2020-10-05
5133,Sold,0x00d7c9,j1mmy,0.45Ξ ($76),"May 07, 2019",0.45,76,2019-05-07
5134,Sold,2870205,7435267,0.25Ξ ($259),"Jan 19, 2018",0.25,259,2018-01-19
5135,Sold,14966261,3026470,0.55Ξ ($64),"Dec 20, 2018",0.55,64,2018-12-20
5137,Sold,15274875,10673338,"20.49Ξ ($42,353)","Apr 08, 2021",20.49,42353,2021-04-08
5137,Sold,7293485,15274875,"17Ξ ($36,064)","Apr 06, 2021",17,36064,2021-04-06
5138,Sold,0xded2cb,8232778,0.50Ξ ($152),"Jun 24, 2017",0.5,152,2017-06-24
5140,Sold,0x12e007,0x5e1b38,"30Ξ ($54,219)","Mar 12, 2021",30,54219,2021-03-12
5140,Sold,0x36fbd8,0x12e007,"24.88Ξ ($48,045)","Feb 21, 2021",24.88,48045,2021-02-21
5140,Sold,charley,0x36fbd8,"7.95Ξ ($14,903)","Feb 13, 2021",7.95,14903,2021-02-13
5140,Sold,0x2fdacd,0xac7821,"4.50Ξ ($5,519)","Jan 14, 2021",4.5,5519,2021-01-14
5141,Sold,Punkofth…,0xc8c115,0.18Ξ ($46),"Jun 26, 2017",0.18,46,2017-06-26
5142,Sold,1700403,3903998,"23.50Ξ ($37,684)","Feb 24, 2021",23.5,37684,2021-02-24
5144,Sold,Hemba,CryptoIn…,0.80Ξ ($168),"May 20, 2020",0.8,168,2020-05-20
5146,Sold,11387433,7833096,"35Ξ ($62,419)","Feb 22, 2021",35,62419,2021-02-22
5146,Sold,10734384,11387433,"6.50Ξ ($8,890)","Jan 31, 2021",6.5,8890,2021-01-31
5147,Sold,733437,7435267,0.33Ξ ($88),"Jul 05, 2017",0.33,88,2017-07-05
5148,Sold,0xa7eba7,2732466,"9.99Ξ ($12,191)","Jan 27, 2021",9.99,12191,2021-01-27
5148,Sold,0xb05b7d,11004839,"6.50Ξ ($8,863)","Jan 26, 2021",6.5,8863,2021-01-26
5149,Sold,TweetyPi…,BanDLiT,1Ξ ($218),"Feb 07, 2020",1,218,2020-02-07
5149,Sold,MBK,TweetyPi…,1Ξ ($174),"Jan 18, 2020",1,174,2020-01-18
5149,Sold,Pranksy,MBK,0.50Ξ ($66),"Jan 01, 2020",0.5,66,2020-01-01
5149,Sold,ark1,Pranksy,0.35Ξ ($74),"Jul 28, 2019",0.35,74,2019-07-28
5149,Sold,0x00d7c9,ark1,0.50Ξ ($84),"May 07, 2019",0.5,84,2019-05-07
5150,Sold,161055,10130264,0.20Ξ ($39),"Jul 30, 2017",0.2,39,2017-07-30
5153,Sold,kxbxlt,Pixls,1.88Ξ ($686),"Sep 14, 2020",1.88,686,2020-09-14
5153,Sold,Pranksy,kxbxlt,1Ξ ($229),"Jul 04, 2020",1,229,2020-07-04
5153,Sold,0x313206,Pranksy,1.08Ξ ($223),"May 21, 2020",1.08,223,2020-05-21
5153,Sold,Bendicio…,0x313206,0.35Ξ ($76),"May 03, 2020",0.35,76,2020-05-03
5153,Sold,0x58164b,Bendicio…,0.40Ξ ($125),"Aug 22, 2017",0.4,125,2017-08-22
5155,Sold,0x13816f,0x32dd07,"14.50Ξ ($26,939)","Feb 18, 2021",14.5,26939,2021-02-18
5155,Sold,cryptoke…,0x13816f,"4.71Ξ ($1,685)","Sep 28, 2020",4.71,1685,2020-09-28
5155,Sold,CPyrc,cryptoke…,"4.49Ξ ($1,607)","Sep 28, 2020",4.49,1607,2020-09-28
5155,Sold,0x3ba9cd,CPyrc,"4Ξ ($1,431)","Sep 28, 2020",4,1431,2020-09-28
5155,Sold,Carlini8,0x3ba9cd,"2.99Ξ ($1,031)","Sep 25, 2020",2.99,1031,2020-09-25
5155,Sold,0x1a96af,Carlini8,1.99Ξ ($749),"Sep 15, 2020",1.99,749,2020-09-15
5156,Sold,0x6a43e6,0x67c443,"23.69Ξ ($46,595)","Feb 19, 2021",23.69,46595,2021-02-19
5156,Sold,0x00d7c9,Mikhail,0.25Ξ ($77),"Sep 27, 2017",0.25,77,2017-09-27
5157,Sold,161055,10130264,0.20Ξ ($39),"Jul 30, 2017",0.2,39,2017-07-30
5158,Sold,0x2bcbbd,Shrugs,0.50Ξ ($680),"Jan 14, 2018",0.5,680,2018-01-14
5159,Sold,kingskin…,0xb166dd,"13Ξ ($17,283)","Jan 24, 2021",13,17283,2021-01-24
5159,Sold,GoWest23,kingskin…,"10.20Ξ ($3,724)","Sep 28, 2020",10.2,3724,2020-09-28
5159,Sold,ddaavvee,GoWest23,3.14Ξ ($644),"May 24, 2020",3.14,644,2020-05-24
5163,Sold,Hemba,Digital,1.45Ξ ($535),"Sep 11, 2020",1.45,535,2020-09-11
5164,Sold,treetop,j1mmy,"7.70Ξ ($2,865)","Sep 20, 2020",7.7,2865,2020-09-20
5164,Sold,sov,treetop,"5Ξ ($1,910)","Sep 18, 2020",5,1910,2020-09-18
5167,Sold,6827056,48543,0.15Ξ ($46),"Jun 24, 2017",0.15,46,2017-06-24
5169,Sold,0x279679,0x1c98c4,"62Ξ ($133,099)","Apr 11, 2021",62,133099,2021-04-11
5169,Sold,jmg,0x29b1b2,"17.69Ξ ($28,110)","Feb 03, 2021",17.69,28110,2021-02-03
5169,Sold,0xd8e806,jmg,0.20Ξ ($197),"Jan 23, 2018",0.2,197,2018-01-23
5175,Sold,0x9cfd46,0xb5696e,"34Ξ ($57,936)","Mar 28, 2021",34,57936,2021-03-28
5175,Sold,0xe1bb6e,0x9cfd46,"35Ξ ($64,685)","Mar 14, 2021",35,64685,2021-03-14
5175,Sold,Pranksy,0x585755,0.55Ξ ($99),"Oct 12, 2019",0.55,99,2019-10-12
5175,Sold,0x00d7c9,Pranksy,0.40Ξ ($125),"Jul 08, 2019",0.4,125,2019-07-08
5176,Sold,0x4f63c2,0x27d5e1,"20.49Ξ ($36,733)","Mar 31, 2021",20.49,36733,2021-03-31
5176,Sold,BENZ,0x4f63c2,"21Ξ ($37,578)","Mar 18, 2021",21,37578,2021-03-18
5176,Sold,0x00d7c9,BENZ,0.45Ξ ($98),"May 14, 2019",0.45,98,2019-05-14
5177,Sold,0xc272ed,14548427,"30Ξ ($53,685)","Mar 12, 2021",30,53685,2021-03-12
5179,Sold,7478,0xc4ee33,2.49Ξ ($957),"Sep 20, 2020",2.49,957,2020-09-20
5179,Sold,ark1,7478,0.35Ξ ($43),"Dec 17, 2019",0.35,43,2019-12-17
5179,Sold,0x00d7c9,ark1,0.25Ξ ($47),"Sep 15, 2019",0.25,47,2019-09-15
5180,Sold,0x00d7c9,Pixls,0.20Ξ ($59),"Sep 01, 2018",0.2,59,2018-09-01
5181,Sold,0xf5099e,0x2a15ca,0.50Ξ ($54),"Nov 26, 2018",0.5,54,2018-11-26
5181,Sold,Cyborg,0xa0a59c,0.35Ξ ($79),"Jul 18, 2017",0.35,79,2017-07-18
5182,Sold,55241,14215174,0.30Ξ ($68),"Jul 23, 2017",0.3,68,2017-07-23
5186,Sold,sov,0x0601d0,"8Ξ ($1,610)","May 16, 2020",8,1610,2020-05-16
5188,Sold,MrNFT,Fiskante…,2.13Ξ ($741),"Sep 21, 2020",2.13,741,2020-09-21
5188,Sold,Pranksy,MrNFT,1.78Ξ ($662),"Sep 20, 2020",1.78,662,2020-09-20
5188,Sold,AZonneve…,evkort,1.99Ξ ($749),"Sep 15, 2020",1.99,749,2020-09-15
5188,Sold,Hemba,AZonneve…,1.20Ξ ($245),"May 25, 2020",1.2,245,2020-05-25
5189,Sold,0xa98ed8,0xef784c,"18.90Ξ ($35,285)","Mar 10, 2021",18.9,35285,2021-03-10
5189,Sold,0x_NFT,KennyB,"3.75Ξ ($1,560)","Oct 23, 2020",3.75,1560,2020-10-23
5189,Sold,0xe4c479,0x_NFT,"3Ξ ($1,034)","Sep 25, 2020",3,1034,2020-09-25
5189,Sold,Hemba,0xe4c479,2.50Ξ ($951),"Sep 20, 2020",2.5,951,2020-09-20
5191,Sold,shilpixe…,0xaf5e63,5Ξ ($993),"May 21, 2020",5,993,2020-05-21
5192,Sold,10734384,fazebank…,"29.99Ξ ($54,493)","Mar 18, 2021",29.99,54493,2021-03-18
5194,Sold,0xeb725f,0x67ff0c,"17Ξ ($33,117)","Feb 21, 2021",17,33117,2021-02-21
5194,Sold,sumrtime…,0xeb725f,"11Ξ ($20,375)","Feb 17, 2021",11,20375,2021-02-17
5194,Sold,0x13816f,sumrtime…,"5.68Ξ ($7,732)","Jan 29, 2021",5.68,7732,2021-01-29
5194,Sold,W_M_Peas…,0x13816f,"4Ξ ($1,433)","Sep 28, 2020",4,1433,2020-09-28
5194,Sold,0xe4c479,W_M_Peas…,"3Ξ ($1,054)","Sep 24, 2020",3,1054,2020-09-24
5194,Sold,Hemba,0xe4c479,2.50Ξ ($951),"Sep 20, 2020",2.5,951,2020-09-20
5195,Sold,NFTcrypt…,snax,1.20Ξ ($420),"Sep 08, 2020",1.2,420,2020-09-08
5195,Sold,ross_VRO…,NFTcrypt…,1.10Ξ ($421),"Aug 25, 2020",1.1,421,2020-08-25
5195,Sold,0x00d7c9,ross,0.45Ξ ($77),"May 08, 2019",0.45,77,2019-05-08
5196,Sold,0x1d45f1,0xae43b2,"14Ξ ($26,483)","Feb 18, 2021",14,26483,2021-02-18
5196,Sold,0x13816f,0x1d45f1,"10Ξ ($18,029)","Feb 17, 2021",10,18029,2021-02-17
5196,Sold,DA,0x13816f,"6Ξ ($2,085)","Oct 03, 2020",6,2085,2020-10-03
5196,Sold,0x00d7c9,KittyGr_…,0.05Ξ ($30),"Jun 08, 2018",0.05,30,2018-06-08
5197,Sold,karbonba…,0x0e4437,"15Ξ ($24,228)","Feb 07, 2021",15,24228,2021-02-07
5197,Sold,0x585f98,karbonba…,"5.50Ξ ($1,930)","Oct 08, 2020",5.5,1930,2020-10-08
5198,Sold,Slider92,0xfb1841,"4.98Ξ ($5,168)","Jan 05, 2021",4.98,5168,2021-01-05
5198,Sold,moderats,Slider92,"4Ξ ($4,167)","Jan 04, 2021",4,4167,2021-01-04
5198,Sold,Pranksy,moderats,1.90Ξ ($709),"Sep 14, 2020",1.9,709,2020-09-14
5198,Sold,juggerna…,alxo,0.25Ξ ($38),"Nov 23, 2019",0.25,38,2019-11-23
5201,Sold,EliteCat…,0x55e149,"9.55Ξ ($17,379)","Feb 15, 2021",9.55,17379,2021-02-15
5201,Sold,Hemba,GoWest23,0.49Ξ ($85),"May 06, 2019",0.49,85,2019-05-06
5209,Sold,2pac,0xec959f,"3.80Ξ ($2,274)","Dec 23, 2020",3.8,2274,2020-12-23
5209,Sold,CPyrc,2pac,"2.80Ξ ($1,817)","Dec 18, 2020",2.8,1817,2020-12-18
5209,Sold,0x4322d6,CPyrc,"1.75Ξ ($1,125)","Dec 18, 2020",1.75,1125,2020-12-18
5209,Sold,Michel_M…,0x4322d6,"3.75Ξ ($2,330)","Nov 24, 2020",3.75,2330,2020-11-24
5209,Sold,0x0553de,Michel_M…,"4.49Ξ ($1,718)","Nov 04, 2020",4.49,1718,2020-11-04
5209,Sold,0x624394,0x0553de,"4Ξ ($1,625)","Oct 26, 2020",4,1625,2020-10-26
5209,Sold,Carlini8,0x624394,"2.99Ξ ($1,033)","Sep 24, 2020",2.99,1033,2020-09-24
5209,Sold,MrTpunks…,Carlini8,1.75Ξ ($351),"May 26, 2020",1.75,351,2020-05-26
5209,Sold,0xcc7c33,MrTpunks…,0.81Ξ ($131),"Jan 16, 2020",0.81,131,2020-01-16
5212,Sold,0xeb725f,WuTangCl…,"24.50Ξ ($47,602)","Feb 21, 2021",24.5,47602,2021-02-21
5212,Sold,0x0503ed,0xeb725f,"18Ξ ($35,217)","Feb 19, 2021",18,35217,2021-02-19
5212,Sold,0xa3cb30,0x0503ed,"15Ξ ($26,453)","Feb 15, 2021",15,26453,2021-02-15
5213,Sold,Pranksy,0xf40b3d,"4.88Ξ ($1,628)","Sep 24, 2020",4.88,1628,2020-09-24
5213,Sold,0x007508,evkort,"8Ξ ($2,947)","Sep 15, 2020",8,2947,2020-09-15
5215,Sold,10288454,15848961,"24.50Ξ ($46,236)","Mar 13, 2021",24.5,46236,2021-03-13
5215,Sold,9952039,10288454,"18Ξ ($36,103)","Feb 20, 2021",18,36103,2021-02-20
5215,Sold,52816,9952039,"12Ξ ($23,602)","Feb 19, 2021",12,23602,2021-02-19
5217,Sold,0x0cea5b,snowfro,"2.50Ξ ($1,884)","Dec 26, 2017",2.5,1884,2017-12-26
5220,Sold,0x07c5ea,0xf4f488,"8.75Ξ ($15,913)","Feb 14, 2021",8.75,15913,2021-02-14
5220,Sold,0xe794fd,0x07c5ea,"7.75Ξ ($14,014)","Feb 14, 2021",7.75,14014,2021-02-14
5220,Sold,kyloren,0xe794fd,"5.30Ξ ($7,277)","Jan 29, 2021",5.3,7277,2021-01-29
5220,Sold,0xe754d1,kyloren,"5.20Ξ ($1,840)","Sep 29, 2020",5.2,1840,2020-09-29
5220,Sold,NeonNFT,0xe754d1,"3.40Ξ ($1,223)","Sep 28, 2020",3.4,1223,2020-09-28
5220,Sold,Pranksy,NeonNFT,"2.99Ξ ($1,055)","Sep 27, 2020",2.99,1055,2020-09-27
5220,Sold,Hemba,Pranksy,2.30Ξ ($796),"Sep 24, 2020",2.3,796,2020-09-24
5222,Sold,Davicio,0x561786,"4.99Ξ ($5,196)","Jan 13, 2021",4.99,5196,2021-01-13
5222,Sold,0x1f8add,Davicio,1.50Ξ ($305),"May 27, 2020",1.5,305,2020-05-27
5222,Sold,Hemba,0x1f8add,0.90Ξ ($182),"May 15, 2020",0.9,182,2020-05-15
5224,Sold,5966219,11231692,"31Ξ ($66,664)","Apr 11, 2021",31,66664,2021-04-11
5225,Sold,Hemba,DANNY,1.22Ξ ($264),"May 18, 2020",1.22,264,2020-05-18
5226,Sold,0xc3baaa,0xbac42c,"4.80Ξ ($5,108)","Jan 05, 2021",4.8,5108,2021-01-05
5226,Sold,NeonNFT,0xd27aa6,"4Ξ ($1,620)","Oct 26, 2020",4,1620,2020-10-26
5226,Sold,0x5b098b,NeonNFT,"5.49Ξ ($1,916)","Oct 03, 2020",5.49,1916,2020-10-03
5227,Sold,0x229229,0x516358,"13.90Ξ ($28,723)","Apr 04, 2021",13.9,28723,2021-04-04
5227,Sold,0x033ee7,0x229229,"4.31Ξ ($5,834)","Jan 24, 2021",4.31,5834,2021-01-24
5227,Sold,MrNFT,0x033ee7,2.86Ξ ($989),"Sep 24, 2020",2.86,989,2020-09-24
5227,Sold,Pranksy,MrNFT,2.19Ξ ($757),"Sep 24, 2020",2.19,757,2020-09-24
5227,Sold,Hemba,Pranksy,1.80Ξ ($613),"Sep 22, 2020",1.8,613,2020-09-22
5228,Sold,0x0d7794,0xab6ca2,"21.97Ξ ($30,736)","Feb 28, 2021",21.97,30736,2021-02-28
5228,Sold,NeonNFT,0x177491,"3.40Ξ ($1,221)","Sep 28, 2020",3.4,1221,2020-09-28
5228,Sold,Pranksy,NeonNFT,"2.89Ξ ($1,020)","Sep 27, 2020",2.89,1020,2020-09-27
5228,Sold,Hemba,Pranksy,2.30Ξ ($796),"Sep 24, 2020",2.3,796,2020-09-24
5229,Sold,0x953750,0xff2854,"24.99Ξ ($45,636)","Mar 11, 2021",24.99,45636,2021-03-11
5229,Sold,monopoly…,0x953750,"28Ξ ($52,580)","Feb 22, 2021",28,52580,2021-02-22
5229,Sold,TokenAng…,monopoly…,"15Ξ ($25,561)","Feb 15, 2021",15,25561,2021-02-15
5229,Sold,0xf0f068…,TokenAng…,0.77Ξ ($124),"Jan 16, 2020",0.77,124,2020-01-16
5229,Sold,0x00d7c9,GtC,0.25Ξ ($45),"Sep 08, 2019",0.25,45,2019-09-08
5230,Sold,Cyborg,0x33f848,0.80Ξ ($177),"Oct 04, 2018",0.8,177,2018-10-04
5230,Sold,0x8ba3e2,Cyborg,0.30Ξ ($101),"Oct 15, 2017",0.3,101,2017-10-15
5231,Sold,0x5b098b,tonyherr…,"4.99Ξ ($6,412)","Jan 27, 2021",4.99,6412,2021-01-27
5231,Sold,Cyborg,0x5b098b,0.24Ξ ($65),"Jul 03, 2017",0.24,65,2017-07-03
5233,Sold,0x398646,2278985,"25Ξ ($47,662)","Feb 21, 2021",25,47662,2021-02-21
5233,Sold,0x8234be,16385821,0.24Ξ ($81),"Oct 13, 2017",0.24,81,2017-10-13
5234,Sold,0x832179,0xfb5251,"350Ξ ($545,814)","Mar 04, 2021",350,545814,2021-03-04
5237,Sold,Cryptokk…,0x568cf5,"5.80Ξ ($2,052)","Sep 29, 2020",5.8,2052,2020-09-29
5237,Sold,0x1a96af,Cryptokk…,0.57Ξ ($98),"Apr 21, 2020",0.57,98,2020-04-21
5238,Sold,monopoly…,0xcc72f7,"25Ξ ($42,760)","Mar 23, 2021",25,42760,2021-03-23
5238,Sold,0x61e7e7,Kino,1.39Ξ ($331),"Jun 01, 2020",1.39,331,2020-06-01
5238,Sold,0x00d7c9,0x581b59,0.50Ξ ($138),"Jul 12, 2019",0.5,138,2019-07-12
5239,Sold,Punkofth…,0x6611fe,0.50Ξ ($103),"Jul 13, 2017",0.5,103,2017-07-13
5240,Sold,Zieg,Shrugs,0.25Ξ ($340),"Jan 14, 2018",0.25,340,2018-01-14
5241,Sold,0x11c9a7,0xf40b3d,2.30Ξ ($767),"Sep 24, 2020",2.3,767,2020-09-24
5241,Sold,Pranksy,0x11c9a7,1.60Ξ ($591),"Sep 12, 2020",1.6,591,2020-09-12
5241,Sold,Goop,alxo,0.26Ξ ($40),"Nov 23, 2019",0.26,40,2019-11-23
5241,Sold,juggerna…,Goop,0.25Ξ ($38),"Nov 23, 2019",0.25,38,2019-11-23
5243,Sold,6299756,6410638,0.30Ξ ($37),"Nov 28, 2018",0.3,37,2018-11-28
5246,Sold,0x0553de,MrTpunks,"5.99Ξ ($2,099)","Oct 01, 2020",5.99,2099,2020-10-01
5246,Sold,An111,0x0553de,"6.40Ξ ($2,255)","Sep 29, 2020",6.4,2255,2020-09-29
5246,Sold,0xd8e806,An111,0.30Ξ ($226),"Feb 07, 2018",0.3,226,2018-02-07
5247,Sold,15737258,11433761,"10.27Ξ ($17,935)","Feb 17, 2021",10.27,17935,2021-02-17
5247,Sold,1278319,15737258,"5.48Ξ ($7,305)","Jan 28, 2021",5.48,7305,2021-01-28
5247,Sold,13367678,1278319,"4.44Ξ ($1,597)","Sep 28, 2020",4.44,1597,2020-09-28
5249,Sold,733437,16033653,0.13Ξ ($59),"Dec 05, 2017",0.13,59,2017-12-05
5252,Sold,0xdfce59,2523497,"5.88Ξ ($7,535)","Jan 26, 2021",5.88,7535,2021-01-26
5252,Sold,0x48db19,14667353,"4Ξ ($1,668)","Oct 22, 2020",4,1668,2020-10-22
5254,Sold,0x9de164,0xe281b9,"14.99Ξ ($30,542)","Apr 07, 2021",14.99,30542,2021-04-07
5254,Sold,Kataster…,0x9de164,"21.25Ξ ($37,915)","Mar 21, 2021",21.25,37915,2021-03-21
5254,Sold,ark1,Kataster…,0.40Ξ ($60),"Dec 08, 2019",0.4,60,2019-12-08
5254,Sold,0x00d7c9,ark1,0.25Ξ ($47),"Sep 15, 2019",0.25,47,2019-09-15
5260,Sold,6827056,45688,0.39Ξ ($94),"Jul 07, 2017",0.39,94,2017-07-07
5262,Sold,5734076,553703,"41.99Ξ ($74,526)","Mar 15, 2021",41.99,74526,2021-03-15
5266,Sold,7293485,Novo311,"10.00Ξ ($18,404)","Feb 14, 2021",10,18404,2021-02-14
5267,Sold,7293485,13621708,"30Ξ ($48,292)","Mar 03, 2021",30,48292,2021-03-03
5269,Sold,7293485,13490252,"25Ξ ($37,386)","Feb 26, 2021",25,37386,2021-02-26
5271,Sold,6471110,337252,"21.99Ξ ($42,471)","Apr 01, 2021",21.99,42471,2021-04-01
5271,Sold,13401139,6471110,"26.50Ξ ($44,988)","Mar 27, 2021",26.5,44988,2021-03-27
5272,Sold,Deeze,0x33b17a,"30Ξ ($54,617)","Mar 09, 2021",30,54617,2021-03-09
5272,Sold,MBK,Deeze,"11Ξ ($20,207)","Feb 14, 2021",11,20207,2021-02-14
5272,Sold,shilpixe…,MBK,"4Ξ ($1,406)","Aug 01, 2020",4,1406,2020-08-01
5273,Sold,0xc41ddd,0xa6f637,"22.22Ξ ($35,592)","Mar 24, 2021",22.22,35592,2021-03-24
5273,Sold,0x491be7,0xc41ddd,"12.88Ξ ($23,772)","Feb 17, 2021",12.88,23772,2021-02-17
5273,Sold,GoWest23,0x491be7,"5.50Ξ ($1,959)","Sep 29, 2020",5.5,1959,2020-09-29
5273,Sold,0x2bcbbd,GoWest23,0.50Ξ ($87),"May 06, 2019",0.5,87,2019-05-06
5275,Sold,Pranksy,0x0e9aed,"15Ξ ($29,730)","Apr 07, 2021",15,29730,2021-04-07
5275,Sold,0xb4bb41,Pranksy,"24.99Ξ ($45,187)","Mar 12, 2021",24.99,45187,2021-03-12
5275,Sold,0xe4446d,0xb4bb41,"18Ξ ($35,512)","Feb 21, 2021",18,35512,2021-02-21
5275,Sold,0x032bc4,0xe4446d,"16.20Ξ ($31,617)","Feb 21, 2021",16.2,31617,2021-02-21
5275,Sold,Korniej,0x032bc4,"13.99Ξ ($25,743)","Feb 17, 2021",13.99,25743,2021-02-17
5275,Sold,Pranksy,Korniej,"2.99Ξ ($1,029)","Sep 22, 2020",2.99,1029,2020-09-22
5275,Sold,0xcb832d,evkort,"3.80Ξ ($1,400)","Sep 15, 2020",3.8,1400,2020-09-15
5275,Sold,Pranksy,0xcb832d,0.80Ξ ($169),"May 09, 2020",0.8,169,2020-05-09
5275,Sold,0x00d7c9,Pranksy,0.25Ξ ($45),"Sep 02, 2019",0.25,45,2019-09-02
5276,Sold,Ambrose,0x3a4930,2Ξ ($407),"May 24, 2020",2,407,2020-05-24
5276,Sold,0xfb077c,Ambrose,1Ξ ($208),"May 18, 2020",1,208,2020-05-18
5277,Sold,55241,13156629,0.40Ξ ($82),"Jul 10, 2017",0.4,82,2017-07-10
5279,Sold,pinkiepi…,0x568cf5,"4Ξ ($2,507)","Dec 22, 2020",4,2507,2020-12-22
5279,Sold,0x735506,2pac,"3.49Ξ ($2,169)","Nov 24, 2020",3.49,2169,2020-11-24
5279,Sold,0x3ba9cd,0x13816f,"5.50Ξ ($1,954)","Sep 29, 2020",5.5,1954,2020-09-29
5279,Sold,Carlini8,0x3ba9cd,2.50Ξ ($869),"Sep 24, 2020",2.5,869,2020-09-24
5279,Sold,Hemba,Carlini8,1.75Ξ ($659),"Sep 14, 2020",1.75,659,2020-09-14
5280,Sold,0xb9fddb,0x4682aa,"17Ξ ($34,430)","Feb 20, 2021",17,34430,2021-02-20
5280,Sold,hellogar…,0xb9fddb,"15Ξ ($26,453)","Feb 15, 2021",15,26453,2021-02-15
5280,Sold,0xa3cb30,hellogar…,"15Ξ ($27,424)","Feb 12, 2021",15,27424,2021-02-12
5280,Sold,0x0bf913,0x00bd9f,0.25Ξ ($71),"Jul 02, 2017",0.25,71,2017-07-02
5282,Sold,sov,0x0a645c,0.31Ξ ($353),"Jan 11, 2018",0.31,353,2018-01-11
5283,Sold,10734384,seel.eth,"9.50Ξ ($16,241)","Feb 15, 2021",9.5,16241,2021-02-15
5285,Sold,0xe754d1,7478,2.10Ξ ($801),"Sep 20, 2020",2.1,801,2020-09-20
5285,Sold,Pranksy,0xe754d1,1.90Ξ ($716),"Sep 14, 2020",1.9,716,2020-09-14
5285,Sold,natealex,Pranksy,1.50Ξ ($580),"Sep 13, 2020",1.5,580,2020-09-13
5285,Sold,Pranksy,natealex,1.25Ξ ($458),"Sep 11, 2020",1.25,458,2020-09-11
5285,Sold,Hemba,Pranksy,1.10Ξ ($235),"May 20, 2020",1.1,235,2020-05-20
5286,Sold,0xc155f9,0xf5663d,"14.25Ξ ($26,846)","Feb 18, 2021",14.25,26846,2021-02-18
5286,Sold,Carlini8,kyloren,"5.20Ξ ($1,840)","Sep 29, 2020",5.2,1840,2020-09-29
5286,Sold,0x6fb180,Carlini8,"5.10Ξ ($1,852)","Sep 28, 2020",5.1,1852,2020-09-28
5286,Sold,Hemba,0x6fb180,2.50Ξ ($910),"Sep 16, 2020",2.5,910,2020-09-16
5287,Sold,digitalo…,0xb1adce,"7.89Ξ ($13,475)","Feb 08, 2021",7.89,13475,2021-02-08
5287,Sold,0xc3baaa,digitalo…,"5.50Ξ ($5,021)","Jan 03, 2021",5.5,5021,2021-01-03
5287,Sold,99Zed,0x4b62ae,"3.50Ξ ($1,613)","Nov 15, 2020",3.5,1613,2020-11-15
5287,Sold,Zieg,0x257e2b,"5.30Ξ ($2,025)","Oct 14, 2020",5.3,2025,2020-10-14
5287,Sold,0x4aa6a3,Zieg,"5.50Ξ ($2,088)","Oct 13, 2020",5.5,2088,2020-10-13
5287,Sold,Galactic…,0x4aa6a3,"4.50Ξ ($1,638)","Oct 09, 2020",4.5,1638,2020-10-09
5287,Sold,Slider92,antunes_…,"5Ξ ($1,687)","Oct 07, 2020",5,1687,2020-10-07
5287,Sold,0xf28820,Slider92,"5.70Ξ ($1,971)","Oct 06, 2020",5.7,1971,2020-10-06
5287,Sold,ross_VRO…,0xf28820,"5.50Ξ ($1,914)","Oct 04, 2020",5.5,1914,2020-10-04
5287,Sold,Zieg,ross_VRO…,"5Ξ ($1,735)","Oct 01, 2020",5,1735,2020-10-01
5287,Sold,jmg,Zieg,"4.99Ξ ($1,838)","Oct 01, 2020",4.99,1838,2020-10-01
5287,Sold,TweetyPi…,jmg,0.42Ξ ($55),"Dec 31, 2019",0.42,55,2019-12-31
5287,Sold,ark1,TweetyPi…,0.30Ξ ($38),"Dec 21, 2019",0.3,38,2019-12-21
5287,Sold,0x00d7c9,ark1,0.25Ξ ($47),"Sep 15, 2019",0.25,47,2019-09-15
5288,Sold,MrTpunks,0x3ff814,"19Ξ ($36,141)","Feb 18, 2021",19,36141,2021-02-18
5288,Sold,KittyGr_…,ManOverb…,"5Ξ ($1,701)","Oct 07, 2020",5,1701,2020-10-07
5288,Sold,0xbfa319,KittyGr_…,0.29Ξ ($174),"Jun 08, 2018",0.29,174,2018-06-08
5288,Sold,0x00d7c9,0xbfa319,0.10Ξ ($38),"Nov 22, 2017",0.1,38,2017-11-22
5289,Sold,Cyborg,Kenney,0.15Ξ ($152),"Jan 18, 2018",0.15,152,2018-01-18
5291,Sold,Hemba,stazie,0.95Ξ ($186),"Apr 28, 2020",0.95,186,2020-04-28
5293,Sold,shilpixe…,0xcb58b8,"17Ξ ($35,200)","Apr 08, 2021",17,35200,2021-04-08
5295,Sold,Pranksy,0x0713a6,1.99Ξ ($426),"May 09, 2020",1.99,426,2020-05-09
5295,Sold,0x61e7e7,Pranksy,1.10Ξ ($158),"Jan 07, 2020",1.1,158,2020-01-07
5295,Sold,0xfb077c,0x581b59,0.75Ξ ($204),"Jun 20, 2019",0.75,204,2019-06-20
5297,Sold,0x677b43,0x7760e0,0.39Ξ ($105),"Jul 04, 2017",0.39,105,2017-07-04
5297,Sold,Cyborg,0x677b43,0.25Ξ ($71),"Jul 02, 2017",0.25,71,2017-07-02
5301,Sold,0x8234be,14476854,0.13Ξ ($106),"Dec 19, 2017",0.13,106,2017-12-19
5302,Sold,1205785,2233870,0.30Ξ ($59),"Jul 14, 2017",0.3,59,2017-07-14
5305,Sold,0xd7e7bc,hellogar…,"17.50Ξ ($32,414)","Mar 10, 2021",17.5,32414,2021-03-10
5305,Sold,Wilcox,0xd7e7bc,"20.50Ξ ($35,348)","Mar 08, 2021",20.5,35348,2021-03-08
5306,Sold,Alex3422,0xeb9191,2Ξ ($420),"May 20, 2020",2,420,2020-05-20
5306,Sold,Pranksy,Alex3422,0.77Ξ ($110),"Jan 07, 2020",0.77,110,2020-01-07
5306,Sold,0x00d7c9,Pranksy,0.25Ξ ($45),"Sep 02, 2019",0.25,45,2019-09-02
5307,Sold,Cyborg,Kenney,0.20Ξ ($234),"Jan 29, 2018",0.2,234,2018-01-29
5307,Sold,0x00d7c9,Cyborg,0.10Ξ ($30),"Oct 26, 2017",0.1,30,2017-10-26
5308,Sold,ross_VRO…,0x8004d1,"13Ξ ($17,135)","Jan 28, 2021",13,17135,2021-01-28
5308,Sold,trislit,ross_VRO…,2.50Ξ ($508),"May 22, 2020",2.5,508,2020-05-22
5308,Sold,0x00d7c9,trislit,0.70Ξ ($115),"Apr 13, 2019",0.7,115,2019-04-13
5309,Sold,point-gr…,0xchambe…,"24.75Ξ ($50,920)","Apr 08, 2021",24.75,50920,2021-04-08
5309,Sold,0xbc325b,point-gr…,"19Ξ ($40,029)","Apr 07, 2021",19,40029,2021-04-07
5309,Sold,0x19f233,0xdf149b,"23Ξ ($34,549)","Feb 27, 2021",23,34549,2021-02-27
5311,Sold,11976269,16033653,0.09Ξ ($42),"Dec 04, 2017",0.09,42,2017-12-04
5313,Sold,0xa876cd,0xff70ec,"28.50Ξ ($60,483)","Apr 06, 2021",28.5,60483,2021-04-06
5313,Sold,sighduck…,0xa876cd,"30Ξ ($46,123)","Mar 04, 2021",30,46123,2021-03-04
5313,Sold,0xba19ba,sighduck…,"20Ξ ($34,796)","Feb 17, 2021",20,34796,2021-02-17
5314,Sold,EliteCat…,friskynf…,"140Ξ ($54,978)","Sep 17, 2020",140,54978,2020-09-17
5314,Sold,0x36a5bc,EliteCat…,"37Ξ ($6,305)","Jan 17, 2020",37,6305,2020-01-17
5318,Sold,55241,7823584,0.05Ξ ($30),"Jun 01, 2018",0.05,30,2018-06-01
5319,Sold,juggerna…,ArtBlock…,0.25Ξ ($45),"Oct 25, 2019",0.25,45,2019-10-25
5320,Sold,0xf0f068…,Kataster…,1.11Ξ ($182),"Jan 16, 2020",1.11,182,2020-01-16
5320,Sold,Pranksy,0xf0f068…,1Ξ ($145),"Jan 08, 2020",1,145,2020-01-08
5320,Sold,0x00d7c9,Pranksy,0.40Ξ ($118),"Jun 21, 2019",0.4,118,2019-06-21
5321,Sold,0xfb3ca8,0x_NFT,"6Ξ ($2,181)","Sep 28, 2020",6,2181,2020-09-28
5321,Sold,LLCoolL,0xfb3ca8,0.79Ξ ($315),"Aug 21, 2020",0.79,315,2020-08-21
5321,Sold,0x9cd85c,obxium,1Ξ ($229),"Feb 10, 2020",1,229,2020-02-10
5321,Sold,0xe45df5,0x9cd85c,0.90Ξ ($120),"Jan 04, 2020",0.9,120,2020-01-04
5322,Sold,0x097761,0x4a3e3f,"23Ξ ($33,688)","Feb 27, 2021",23,33688,2021-02-27
5322,Sold,0xf9728b,0x11c9a7,"3.33Ξ ($2,087)","Dec 22, 2020",3.33,2087,2020-12-22
5322,Sold,0x3ba9cd,0xf9728b,"2.90Ξ ($1,029)","Sep 26, 2020",2.9,1029,2020-09-26
5322,Sold,Carlini8,0x3ba9cd,2.40Ξ ($834),"Sep 24, 2020",2.4,834,2020-09-24
5322,Sold,Pranksy,Carlini8,1.80Ξ ($678),"Sep 14, 2020",1.8,678,2020-09-14
5322,Sold,Hemba,Pranksy,1.30Ξ ($474),"Sep 11, 2020",1.3,474,2020-09-11
5323,Sold,10251089,13469598,"26Ξ ($46,134)","Mar 12, 2021",26,46134,2021-03-12
5323,Sold,10369821,10251089,"21Ξ ($37,483)","Mar 12, 2021",21,37483,2021-03-12
5323,Sold,10734384,10369821,"12.50Ξ ($22,817)","Feb 13, 2021",12.5,22817,2021-02-13
5324,Sold,0x6e5e91,ArtbyMLO,1.10Ξ ($256),"Jul 17, 2020",1.1,256,2020-07-17
5324,Sold,Hemba,0x6e5e91,1.15Ξ ($239),"May 23, 2020",1.15,239,2020-05-23
5325,Sold,0x5b331e,0xe4f0ac,"25Ξ ($39,119)","Feb 23, 2021",25,39119,2021-02-23
5325,Sold,Cryptgo,0x5b331e,"14.89Ξ ($29,865)","Feb 20, 2021",14.89,29865,2021-02-20
5325,Sold,0x00d7c9,Cryptgo,0.27Ξ ($57),"Aug 09, 2019",0.27,57,2019-08-09
5329,Sold,✨🚀🌙.et…,0xd3e2e7,"18.50Ξ ($32,909)","Mar 11, 2021",18.5,32909,2021-03-11
5330,Sold,5966219,16745492,0.18Ξ ($54),"Jun 29, 2017",0.18,54,2017-06-29
5332,Sold,0x0553de,Tschuuul…,0.98Ξ ($141),"Jan 12, 2020",0.98,141,2020-01-12
5332,Sold,0x00d7c9,0x0553de,0.40Ξ ($108),"Jul 13, 2019",0.4,108,2019-07-13
5334,Sold,0x86af6e,11285413,"19Ξ ($34,046)","Mar 08, 2021",19,34046,2021-03-08
5334,Sold,0xc480fb,8826734,"20Ξ ($33,171)","Mar 07, 2021",20,33171,2021-03-07
5337,Sold,✨🚀🌙.et…,0x55758f,"20.25Ξ ($33,945)","Mar 24, 2021",20.25,33945,2021-03-24
5338,Sold,NeonNFT,0x13816f,"4.75Ξ ($1,677)","Oct 02, 2020",4.75,1677,2020-10-02
5338,Sold,0x00d7c9,KittyGr_…,0.05Ξ ($30),"Jun 08, 2018",0.05,30,2018-06-08
5339,Sold,5734076,971232,"27.99Ξ ($51,958)","Mar 14, 2021",27.99,51958,2021-03-14
5340,Sold,48442,5966219,0.19Ξ ($53),"Jun 30, 2017",0.19,53,2017-06-30
5340,Sold,5966219,48442,0.14Ξ ($41),"Jun 29, 2017",0.14,41,2017-06-29
5342,Sold,12878075,15457820,"24.55Ξ ($45,372)","Mar 14, 2021",24.55,45372,2021-03-14
5344,Sold,12800693,9876623,0.23Ξ ($71),"Oct 30, 2017",0.23,71,2017-10-30
5346,Sold,EliteCat…,0x8f6b1e,"10.25Ξ ($18,525)","Feb 15, 2021",10.25,18525,2021-02-15
5346,Sold,0x5d99d4,GoWest23,0.50Ξ ($87),"May 06, 2019",0.5,87,2019-05-06
5346,Sold,0x00d7c9,0x5d99d4,0.10Ξ ($30),"Oct 31, 2017",0.1,30,2017-10-31
5347,Sold,0x5b098b,11626205,"19Ξ ($35,027)","Feb 13, 2021",19,35027,2021-02-13
5348,Sold,0xc480fb,11599876,"17Ξ ($35,564)","Apr 03, 2021",17,35564,2021-04-03
5350,Sold,0x5b098b,4769884,"34.50Ξ ($65,262)","Feb 18, 2021",34.5,65262,2021-02-18
5352,Sold,Kataster…,0xc1d1d3,"18.10Ξ ($30,276)","Mar 23, 2021",18.1,30276,2021-03-23
5352,Sold,ark1,Kataster…,0.37Ξ ($45),"Dec 17, 2019",0.37,45,2019-12-17
5352,Sold,0x00d7c9,ark1,0.25Ξ ($47),"Sep 15, 2019",0.25,47,2019-09-15
5353,Sold,733437,10898397,0.13Ξ ($55),"Dec 06, 2017",0.13,55,2017-12-06
5354,Sold,0xce61bc,0xc41ddd,"9.48Ξ ($17,241)","Feb 17, 2021",9.48,17241,2021-02-17
5354,Sold,cryptosa…,0xce61bc,"5.49Ξ ($6,977)","Jan 27, 2021",5.49,6977,2021-01-27
5354,Sold,Korniej,cryptosa…,2.50Ξ ($821),"Sep 24, 2020",2.5,821,2020-09-24
5354,Sold,Michel_M…,Korniej,1.90Ξ ($706),"Sep 20, 2020",1.9,706,2020-09-20
5354,Sold,BitcoinG…,Michel_M…,1.60Ξ ($616),"Sep 19, 2020",1.6,616,2020-09-19
5354,Sold,0x7a37a1,BitcoinG…,2Ξ ($756),"Sep 15, 2020",2,756,2020-09-15
5354,Sold,Pranksy,0x7a37a1,1.40Ξ ($510),"Sep 13, 2020",1.4,510,2020-09-13
5354,Sold,natealex,Pranksy,1.45Ξ ($535),"Sep 11, 2020",1.45,535,2020-09-11
5354,Sold,Pranksy,natealex,1.25Ξ ($457),"Sep 11, 2020",1.25,457,2020-09-11
5354,Sold,Hemba,Pranksy,0.58Ξ ($78),"Jan 04, 2020",0.58,78,2020-01-04
5356,Sold,733437,9876623,0.29Ξ ($65),"Aug 03, 2017",0.29,65,2017-08-03
5357,Sold,DjangoBi…,0x18669d,0.10Ξ ($30),"Sep 02, 2018",0.1,30,2018-09-02
5357,Sold,0x0b30fd,0x9be1c7,0.25Ξ ($69),"Jul 03, 2017",0.25,69,2017-07-03
5360,Sold,0x0b88fd,67438,"41Ξ ($69,394)","Mar 27, 2021",41,69394,2021-03-27
5364,Sold,0x033ee7,0x67c443,"16.19Ξ ($31,722)","Feb 21, 2021",16.19,31722,2021-02-21
5364,Sold,0xe4c479,0x033ee7,"2.90Ξ ($1,031)","Sep 26, 2020",2.9,1031,2020-09-26
5364,Sold,Hemba,0xe4c479,"3Ξ ($1,051)","Sep 25, 2020",3,1051,2020-09-25
5365,Sold,5331586,sov,0.41Ξ ($94),"Jul 23, 2017",0.41,94,2017-07-23
5366,Sold,Deeze,0x516358,"15Ξ ($31,064)","Apr 05, 2021",15,31064,2021-04-05
5366,Sold,CPyrc,0x568cf5,"5.75Ξ ($2,088)","Sep 28, 2020",5.75,2088,2020-09-28
5366,Sold,0x13816f,CPyrc,"4.88Ξ ($1,774)","Sep 28, 2020",4.88,1774,2020-09-28
5366,Sold,0xf4239e,0x13816f,"3.75Ξ ($1,341)","Sep 28, 2020",3.75,1341,2020-09-28
5366,Sold,0xb40dac,0xf4239e,"3.39Ξ ($1,199)","Sep 26, 2020",3.39,1199,2020-09-26
5366,Sold,0x5e7ee9,0xb40dac,2.70Ξ ($948),"Sep 24, 2020",2.7,948,2020-09-24
5366,Sold,0xe4c479,0x5e7ee9,2.50Ξ ($865),"Sep 24, 2020",2.5,865,2020-09-24
5366,Sold,0x86126b,0xe4c479,2.20Ξ ($745),"Sep 24, 2020",2.2,745,2020-09-24
5366,Sold,Hemba,0x86126b,1.80Ξ ($667),"Sep 20, 2020",1.8,667,2020-09-20
5367,Sold,MANAmans…,0xcf6165,"4.94Ξ ($3,175)","Dec 26, 2020",4.94,3175,2020-12-26
5367,Sold,0x4960c4…,MANAmans…,"4.95Ξ ($1,771)","Sep 28, 2020",4.95,1771,2020-09-28
5367,Sold,shilpixe…,0x4960c4…,1Ξ ($213),"May 20, 2020",1,213,2020-05-20
5370,Sold,jesterbo…,0x1e243e,"18.40Ξ ($34,913)","Feb 18, 2021",18.4,34913,2021-02-18
5372,Sold,0x5f18f9,beautifu…,"100Ξ ($177,429)","Mar 12, 2021",100,177429,2021-03-12
5374,Sold,Carlini8,gaus,2.49Ξ ($869),"Sep 25, 2020",2.49,869,2020-09-25
5374,Sold,Hemba,Carlini8,1.50Ξ ($564),"Sep 14, 2020",1.5,564,2020-09-14
5375,Sold,shilpixe…,VonMises,1.50Ξ ($319),"May 07, 2020",1.5,319,2020-05-07
5380,Sold,Loopify,0x4de20e,"19.90Ξ ($40,752)","Apr 08, 2021",19.9,40752,2021-04-08
5380,Sold,0x71a31c,Loopify,"15.70Ξ ($32,452)","Apr 08, 2021",15.7,32452,2021-04-08
5380,Sold,0x0642f6,0x71a31c,"14.75Ξ ($28,852)","Apr 02, 2021",14.75,28852,2021-04-02
5382,Sold,0x00d7c9,3035547,0.70Ξ ($131),"Aug 27, 2019",0.7,131,2019-08-27
5384,Sold,0xb0b0b5,antunes_…,0.63Ξ ($104),"Apr 11, 2019",0.63,104,2019-04-11
5385,Sold,0x00d7c9,Sylveste…,0.45Ξ ($78),"May 06, 2019",0.45,78,2019-05-06
5389,Sold,DANNY,0x75bb8e,"80Ξ ($142,328)","Feb 22, 2021",80,142328,2021-02-22
5389,Sold,0x052564,DANNY,"13Ξ ($5,003)","Sep 13, 2020",13,5003,2020-09-13
5389,Sold,0x0bf913,0xd8e806,0.90Ξ ($171),"Jul 11, 2017",0.9,171,2017-07-11
5390,Sold,0xc69ae4,0x4322aa,"7.97Ξ ($11,412)","Jan 25, 2021",7.97,11412,2021-01-25
5390,Sold,0x3a8441,0xc69ae4,1.49Ξ ($298),"May 26, 2020",1.49,298,2020-05-26
5391,Sold,0xd8e806,sov,0.13Ξ ($39),"Oct 31, 2017",0.13,39,2017-10-31
5391,Sold,0x0bf913,0xd8e806,0.36Ξ ($69),"Jul 11, 2017",0.36,69,2017-07-11
5391,Sold,0x00d7c9,0x0bf913,0.22Ξ ($44),"Jul 10, 2017",0.22,44,2017-07-10
5392,Sold,0x13816f,0xcfd9cc,"23.88Ξ ($38,440)","Mar 03, 2021",23.88,38440,2021-03-03
5392,Sold,0x48d1f7,0x13816f,"20Ξ ($32,554)","Feb 24, 2021",20,32554,2021-02-24
5392,Sold,ross_VRO…,0x48d1f7,"8.99Ξ ($15,755)","Feb 17, 2021",8.99,15755,2021-02-17
5392,Sold,0x5eb67a,ross_VRO…,"4.25Ξ ($5,671)","Jan 25, 2021",4.25,5671,2021-01-25
5392,Sold,0xbfa319,0x5eb67a,2.74Ξ ($937),"Sep 22, 2020",2.74,937,2020-09-22
5392,Sold,juggerna…,0xbfa319,0.25Ξ ($46),"Nov 02, 2019",0.25,46,2019-11-02
5394,Sold,10734384,14147703,"16.50Ξ ($34,666)","Apr 06, 2021",16.5,34666,2021-04-06
5396,Sold,55241,5499325,0.10Ξ ($27),"Aug 22, 2018",0.1,27,2018-08-22
5397,Sold,0xb166dd,0x024bcb,"22.20Ξ ($43,375)","Feb 21, 2021",22.2,43375,2021-02-21
5397,Sold,tonyherr…,0xb166dd,"7.75Ξ ($9,609)","Jan 23, 2021",7.75,9609,2021-01-23
5397,Sold,0xcbdde8,tonyherr…,"4.90Ξ ($2,014)","Oct 24, 2020",4.9,2014,2020-10-24
5397,Sold,0x00d7c9,KittyGr_…,0.10Ξ ($60),"Jun 08, 2018",0.1,60,2018-06-08
5398,Sold,TokenAng…,Deepyr,1.61Ξ ($612),"Aug 26, 2020",1.61,612,2020-08-26
5398,Sold,MBK,TokenAng…,1.25Ξ ($266),"May 09, 2020",1.25,266,2020-05-09
5398,Sold,Pranksy,MBK,0.50Ξ ($66),"Jan 01, 2020",0.5,66,2020-01-01
5398,Sold,0x00d7c9,Pranksy,0.25Ξ ($45),"Sep 02, 2019",0.25,45,2019-09-02
5399,Sold,0x6ed1a5,0x7decf7,"23.49Ξ ($42,034)","Mar 18, 2021",23.49,42034,2021-03-18
5399,Sold,0xaae8c5,0x6ed1a5,"22.49Ξ ($34,209)","Mar 01, 2021",22.49,34209,2021-03-01
5399,Sold,Carlini8,gaus,2.49Ξ ($869),"Sep 25, 2020",2.49,869,2020-09-25
5399,Sold,0x6e5b3f,Carlini8,1.90Ξ ($716),"Sep 14, 2020",1.9,716,2020-09-14
5402,Sold,0x1d45f1,0x04ede4,"5.80Ξ ($2,752)","Nov 14, 2020",5.8,2752,2020-11-14
5402,Sold,0xad4f9e,0x1d45f1,"7.99Ξ ($2,720)","Oct 07, 2020",7.99,2720,2020-10-07
5402,Sold,Dude_Nak…,0xad4f9e,"6.80Ξ ($2,312)","Oct 07, 2020",6.8,2312,2020-10-07
5402,Sold,0xa3cb30,Dude_Nak…,"5.70Ξ ($2,012)","Oct 06, 2020",5.7,2012,2020-10-06
5404,Sold,12426802,2675069,"8.09Ξ ($14,587)","Feb 16, 2021",8.09,14587,2021-02-16
5404,Sold,15840856,12426802,"6.50Ξ ($11,971)","Feb 12, 2021",6.5,11971,2021-02-12
5404,Sold,15878591,15840856,"5.60Ξ ($9,665)","Feb 10, 2021",5.6,9665,2021-02-10
5404,Sold,10734384,15878591,"5.50Ξ ($3,484)","Dec 27, 2020",5.5,3484,2020-12-27
5406,Sold,0x0553de,TokenAng…,1.25Ξ ($266),"May 09, 2020",1.25,266,2020-05-09
5406,Sold,0x00d7c9,0x0553de,0.40Ξ ($125),"Jul 08, 2019",0.4,125,2019-07-08
5408,Sold,784659,45688,0.33Ξ ($92),"Jul 03, 2017",0.33,92,2017-07-03
5409,Sold,0x577ebc,4965394,"39.99Ξ ($73,540)","Mar 09, 2021",39.99,73540,2021-03-09
5411,Sold,0x169560,0xa2b0d8,"29.00Ξ ($51,893)","Mar 12, 2021",29,51893,2021-03-12
5411,Sold,0xeb725f,0x169560,"26Ξ ($49,837)","Feb 22, 2021",26,49837,2021-02-22
5411,Sold,zonted,0xeb725f,"15Ξ ($27,684)","Feb 17, 2021",15,27684,2021-02-17
5411,Sold,Pranksy,zonted,1.99Ξ ($724),"Sep 13, 2020",1.99,724,2020-09-13
5411,Sold,0x00d7c9,alxo,0.50Ξ ($86),"May 08, 2019",0.5,86,2019-05-08
5412,Sold,0x3499ee,ross_VRO…,"38Ξ ($17,542)","Nov 16, 2020",38,17542,2020-11-16
5413,Sold,7293485,8252663,"35Ξ ($47,869)","Feb 28, 2021",35,47869,2021-02-28
5414,Sold,Hemba,Kenney,0.15Ξ ($57),"Apr 04, 2018",0.15,57,2018-04-04
5416,Sold,0x5aaeb9,gaus,2.60Ξ ($907),"Sep 25, 2020",2.6,907,2020-09-25
5416,Sold,0x0eee8c,0x5aaeb9,2.50Ξ ($865),"Sep 24, 2020",2.5,865,2020-09-24
5416,Sold,Pranksy,0x0eee8c,2.19Ξ ($706),"Sep 23, 2020",2.19,706,2020-09-23
5416,Sold,Hemba,Pranksy,1.80Ξ ($613),"Sep 22, 2020",1.8,613,2020-09-22
5420,Sold,Adinalin…,0xfbec67,"24.65Ξ ($49,886)","Feb 20, 2021",24.65,49886,2021-02-20
5420,Sold,0x470e9b,Adinalin…,0.65Ξ ($87),"Mar 25, 2019",0.65,87,2019-03-25
5421,Sold,Pranksy,Pixls,0.80Ξ ($134),"Jan 20, 2020",0.8,134,2020-01-20
5421,Sold,0x00d7c9,Pranksy,0.25Ξ ($45),"Sep 02, 2019",0.25,45,2019-09-02
5422,Sold,0x00d7c9,GtC,0.25Ξ ($45),"Sep 03, 2019",0.25,45,2019-09-03
5424,Sold,Hemba,0x9ca9b5,0.14Ξ ($111),"Dec 21, 2017",0.14,111,2017-12-21
5425,Sold,2293507,14215174,0.15Ξ ($46),"Aug 11, 2017",0.15,46,2017-08-11
5426,Sold,0xa7eba7,DANNY,"29Ξ ($9,979)","Sep 22, 2020",29,9979,2020-09-22
5427,Sold,5966219,1034200,"4.97Ξ ($6,642)","Jan 26, 2021",4.97,6642,2021-01-26
5428,Sold,aurelia-…,0x77a1a2,"20Ξ ($31,946)","Mar 03, 2021",20,31946,2021-03-03
5428,Sold,Novo311,aurelia-…,"8.98Ξ ($16,513)","Feb 14, 2021",8.98,16513,2021-02-14
5428,Sold,cryptoke…,Novo311,"5.89Ξ ($2,091)","Sep 30, 2020",5.89,2091,2020-09-30
5428,Sold,barthazi…,cryptoke…,"5.49Ξ ($1,970)","Sep 29, 2020",5.49,1970,2020-09-29
5428,Sold,ChrisR,barthazi…,1.14Ξ ($383),"Sep 09, 2020",1.14,383,2020-09-09
5428,Sold,0x231707,Pranksy,0.92Ξ ($187),"May 22, 2020",0.92,187,2020-05-22
5429,Sold,3van.eth,0x_NFT,"9Ξ ($10,343)","Jan 22, 2021",9,10343,2021-01-22
5429,Sold,0x257e2b,evkort,"8.75Ξ ($3,232)","Oct 16, 2020",8.75,3232,2020-10-16
5429,Sold,0x5b098b,0x257e2b,"10Ξ ($3,410)","Oct 07, 2020",10,3410,2020-10-07
5430,Sold,8321923,13264336,"26Ξ ($41,640)","Mar 25, 2021",26,41640,2021-03-25
5431,Sold,BitcoinG…,0x4397c8,"5Ξ ($1,855)","Sep 13, 2020",5,1855,2020-09-13
5431,Sold,Pranksy,0x1f8add,1.89Ξ ($363),"May 10, 2020",1.89,363,2020-05-10
5431,Sold,0x00d7c9,Pranksy,0.25Ξ ($45),"Sep 02, 2019",0.25,45,2019-09-02
5432,Sold,0x58164b,Kenney,0.06Ξ ($45),"May 07, 2018",0.06,45,2018-05-07
5433,Sold,0xdc24c4,0x45f672,"12.50Ξ ($4,392)","Oct 08, 2020",12.5,4392,2020-10-08
5433,Sold,KittyGr_…,0xdc24c4,"6.80Ξ ($2,392)","Oct 05, 2020",6.8,2392,2020-10-05
5433,Sold,0x00d7c9,KittyGr_…,0.10Ξ ($60),"Jun 08, 2018",0.1,60,2018-06-08
5434,Sold,6827056,2390212,0.50Ξ ($108),"Jul 21, 2017",0.5,108,2017-07-21
5435,Sold,Wilcox,0x84d34f,"21.50Ξ ($38,975)","Mar 11, 2021",21.5,38975,2021-03-11
5437,Sold,0xe754d1,0x268169,"4.90Ξ ($6,279)","Jan 26, 2021",4.9,6279,2021-01-26
5437,Sold,0xb40dac,0xe754d1,"3.45Ξ ($1,241)","Sep 28, 2020",3.45,1241,2020-09-28
5437,Sold,0x5e7ee9,0xb40dac,2.70Ξ ($948),"Sep 24, 2020",2.7,948,2020-09-24
5437,Sold,0xe4c479,0x5e7ee9,2.50Ξ ($865),"Sep 24, 2020",2.5,865,2020-09-24
5437,Sold,0x86126b,0xe4c479,2.20Ξ ($745),"Sep 24, 2020",2.2,745,2020-09-24
5437,Sold,Hemba,0x86126b,1.80Ξ ($667),"Sep 20, 2020",1.8,667,2020-09-20
5440,Sold,14602955,Korniej,"5Ξ ($1,730)","Sep 24, 2020",5,1730,2020-09-24
5444,Sold,5734076,328685,"29Ξ ($52,498)","Feb 16, 2021",29,52498,2021-02-16
5445,Sold,Pixls,0xc352b5,0.23Ξ ($20),"Dec 13, 2018",0.23,20,2018-12-13
5445,Sold,Cyborg,Pixls,0.20Ξ ($18),"Dec 08, 2018",0.2,18,2018-12-08
5445,Sold,0x0b30fd,Cyborg,0.13Ξ ($44),"Oct 15, 2017",0.13,44,2017-10-15
5447,Sold,0xbac42c,13865202,"24.98Ξ ($53,378)","Apr 12, 2021",24.98,53378,2021-04-12
5447,Sold,0x05e709,12239916,"4.75Ξ ($5,829)","Jan 15, 2021",4.75,5829,2021-01-15
5447,Sold,0x2fdacd,386825,"4.40Ξ ($5,329)","Jan 14, 2021",4.4,5329,2021-01-14
5449,Sold,Dude_Nak…,0xdfe5f1,0.19Ξ ($134),"Apr 24, 2018",0.19,134,2018-04-24
5449,Sold,Cyborg,Dude_Nak…,0.14Ξ ($76),"Mar 23, 2018",0.14,76,2018-03-23
5454,Sold,0x58164b,7823584,0.05Ξ ($44),"Jan 02, 2018",0.05,44,2018-01-02
5461,Sold,curating…,0x561786,"5.97Ξ ($6,217)","Jan 13, 2021",5.97,6217,2021-01-13
5462,Sold,0xae8658,👱‍♀.eth,"19.50Ξ ($37,491)","Mar 13, 2021",19.5,37491,2021-03-13
5462,Sold,wookie.e…,0xae8658,"21Ξ ($38,139)","Mar 12, 2021",21,38139,2021-03-12
5462,Sold,Pranksy,0x491be7,"5.49Ξ ($1,955)","Sep 29, 2020",5.49,1955,2020-09-29
5462,Sold,Carlini8,Pranksy,"3.99Ξ ($1,427)","Sep 28, 2020",3.99,1427,2020-09-28
5462,Sold,0xb40dac,Carlini8,"3.80Ξ ($1,355)","Sep 28, 2020",3.8,1355,2020-09-28
5462,Sold,Hemba,0xb40dac,"3Ξ ($1,054)","Sep 24, 2020",3,1054,2020-09-24
5465,Sold,NeonNFT,0x13816f,"3.30Ξ ($1,167)","Sep 27, 2020",3.3,1167,2020-09-27
5465,Sold,cryptoke…,NeonNFT,"3.10Ξ ($1,096)","Sep 27, 2020",3.1,1096,2020-09-27
5465,Sold,Bitjamin,cryptoke…,"3Ξ ($1,082)","Sep 27, 2020",3,1082,2020-09-27
5465,Sold,_K_A_M_I…,Bitjamin,1.99Ξ ($759),"Sep 20, 2020",1.99,759,2020-09-20
5465,Sold,NeonNFT,_K_A_M_I…,1.60Ξ ($590),"Sep 16, 2020",1.6,590,2020-09-16
5465,Sold,Loopify,NeonNFT,1.85Ξ ($679),"Sep 16, 2020",1.85,679,2020-09-16
5465,Sold,MrNFT,Loopify,1.79Ξ ($675),"Sep 14, 2020",1.79,675,2020-09-14
5465,Sold,Hemba,MrNFT,1.66Ξ ($624),"Sep 14, 2020",1.66,624,2020-09-14
5467,Sold,Pranksy,0x491be7,"5.49Ξ ($1,955)","Sep 29, 2020",5.49,1955,2020-09-29
5467,Sold,Carlini8,Pranksy,"3.99Ξ ($1,427)","Sep 28, 2020",3.99,1427,2020-09-28
5467,Sold,0xb40dac,Carlini8,"3.80Ξ ($1,355)","Sep 28, 2020",3.8,1355,2020-09-28
5467,Sold,Hemba,0xb40dac,"3Ξ ($1,054)","Sep 24, 2020",3,1054,2020-09-24
5471,Sold,MBK,0x3dde27,2Ξ ($330),"Jan 15, 2020",2,330,2020-01-15
5471,Sold,jmg,MBK,1.50Ξ ($202),"Jan 04, 2020",1.5,202,2020-01-04
5471,Sold,0x00d7c9,jmg,0.70Ξ ($116),"Apr 06, 2019",0.7,116,2019-04-06
5475,Sold,10053431,11844417,"27Ξ ($41,069)","Mar 01, 2021",27,41069,2021-03-01
5477,Sold,55241,Pixls,0.25Ξ ($52),"Aug 13, 2019",0.25,52,2019-08-13
5480,Sold,0xc9ab58,redlione…,"4.99Ξ ($5,034)","Jan 11, 2021",4.99,5034,2021-01-11
5480,Sold,Pranksy,Michel_M…,"5.99Ξ ($2,105)","Oct 05, 2020",5.99,2105,2020-10-05
5480,Sold,KittyGr_…,Pranksy,"4Ξ ($1,411)","Oct 04, 2020",4,1411,2020-10-04
5480,Sold,0x00d7c9,KittyGr_…,0.10Ξ ($60),"Jun 08, 2018",0.1,60,2018-06-08
5482,Sold,lordtyle…,0x69d494,0.85Ξ ($295),"Sep 25, 2020",0.85,295,2020-09-25
5482,Sold,MrNFT,lordtyle…,"2.97Ξ ($1,013)","Sep 25, 2020",2.97,1013,2020-09-25
5482,Sold,ross_VRO…,MrNFT,2.79Ξ ($962),"Sep 25, 2020",2.79,962,2020-09-25
5482,Sold,SharkWha…,ross_VRO…,2.49Ξ ($851),"Sep 23, 2020",2.49,851,2020-09-23
5482,Sold,ross_VRO…,SharkWha…,1.99Ξ ($758),"Sep 20, 2020",1.99,758,2020-09-20
5482,Sold,Zonked,ross_VRO…,1.39Ξ ($523),"Sep 14, 2020",1.39,523,2020-09-14
5482,Sold,Pranksy,Zonked,1.25Ξ ($463),"Sep 11, 2020",1.25,463,2020-09-11
5482,Sold,0x48db19,Pranksy,1.10Ξ ($401),"Sep 11, 2020",1.1,401,2020-09-11
5483,Sold,784659,8008732,0.14Ξ ($41),"Jun 30, 2017",0.14,41,2017-06-30
5484,Sold,0x00d7c9,0xdbed69…,0.50Ξ ($108),"Aug 11, 2019",0.5,108,2019-08-11
5485,Sold,Pranksy,0x5ff57f,1.99Ξ ($400),"May 26, 2020",1.99,400,2020-05-26
5485,Sold,0x00d7c9,Pranksy,0.25Ξ ($45),"Sep 02, 2019",0.25,45,2019-09-02
5486,Sold,0xfba169,2144805,"1.50Ξ ($2,041)","Feb 28, 2021",1.5,2041,2021-02-28
5487,Sold,0x7eb46d,10362432,0.20Ξ ($183),"Feb 02, 2018",0.2,183,2018-02-02
5487,Sold,0xd8e806,8303725,0.25Ξ ($175),"Dec 13, 2017",0.25,175,2017-12-13
5487,Sold,0xfb077c,14215174,0.40Ξ ($87),"Jul 21, 2017",0.4,87,2017-07-21
5488,Sold,0x0503ed,15003820,"7.50Ξ ($13,500)","Feb 12, 2021",7.5,13500,2021-02-12
5488,Sold,0xdae48d,328685,"5.50Ξ ($7,129)","Jan 31, 2021",5.5,7129,2021-01-31
5497,Sold,Hemba,Kenney,0.16Ξ ($184),"Jan 20, 2018",0.16,184,2018-01-20
5499,Sold,shilpixe…,Kenney,0.21Ξ ($246),"Jan 29, 2018",0.21,246,2018-01-29
5500,Sold,13957742,7650826,"28Ξ ($51,734)","Mar 20, 2021",28,51734,2021-03-20
5511,Sold,0x30507c,tonyherr…,"5Ξ ($6,104)","Jan 21, 2021",5,6104,2021-01-21
5511,Sold,Pranksy,0x5812e7,0.50Ξ ($64),"Dec 23, 2019",0.5,64,2019-12-23
5511,Sold,0x00d7c9,Pranksy,0.25Ξ ($45),"Sep 02, 2019",0.25,45,2019-09-02
5512,Sold,0xa3cb30,8168120,"19.99Ξ ($37,044)","Mar 30, 2021",19.99,37044,2021-03-30
5514,Sold,0x336caf,0x0ebd1a,"14.60Ξ ($25,805)","Feb 17, 2021",14.6,25805,2021-02-17
5514,Sold,NFTinTin,0x336caf,"11.11Ξ ($14,322)","Jan 28, 2021",11.11,14322,2021-01-28
5514,Sold,0x1a96af,NFTinTin,0.55Ξ ($93),"Apr 17, 2020",0.55,93,2020-04-17
5516,Sold,0xb6be4d,16758489,"19.98Ξ ($41,236)","Apr 08, 2021",19.98,41236,2021-04-08
5516,Sold,0xf4a775,11976269,"17.50Ξ ($30,930)","Mar 29, 2021",17.5,30930,2021-03-29
5516,Sold,0xb6be4d,16033653,0.09Ξ ($41),"Dec 05, 2017",0.09,41,2017-12-05
5518,Sold,0x43c751,0x0ebd1a,"17Ξ ($30,213)","Feb 17, 2021",17,30213,2021-02-17
5518,Sold,Pranksy,Michel_M…,1.30Ξ ($299),"Jul 02, 2020",1.3,299,2020-07-02
5518,Sold,Hemba,Pranksy,1.50Ξ ($302),"May 22, 2020",1.5,302,2020-05-22
5519,Sold,0x00d7c9,0x17e31b…,0.25Ξ ($43),"Sep 01, 2019",0.25,43,2019-09-01
5520,Sold,Hemba,0x717403,0.06Ξ ($18),"Jun 29, 2017",0.06,18,2017-06-29
5522,Sold,0x1fc558,0x49f065,"2.80Ξ ($1,096)","Aug 24, 2020",2.8,1096,2020-08-24
5522,Sold,Pranksy,0x1fc558,2.25Ξ ($537),"Jul 14, 2020",2.25,537,2020-07-14
5522,Sold,treetop,Pranksy,1.44Ξ ($290),"May 26, 2020",1.44,290,2020-05-26
5522,Sold,Pranksy,treetop,0.99Ξ ($142),"Apr 03, 2020",0.99,142,2020-04-03
5522,Sold,0xe45df5,Pranksy,0.80Ξ ($142),"Jan 18, 2020",0.8,142,2020-01-18
5523,Sold,0x1f5a39,0x5a6dfb,"4.99Ξ ($3,053)","Dec 25, 2020",4.99,3053,2020-12-25
5523,Sold,0x5b098b,MrNFT,"3.84Ξ ($1,380)","Sep 28, 2020",3.84,1380,2020-09-28
5526,Sold,5734076,11889006,"29Ξ ($53,312)","Mar 30, 2021",29,53312,2021-03-30
5528,Sold,7293485,636665,"27Ξ ($41,238)","Feb 23, 2021",27,41238,2021-02-23
5532,Sold,6827056,14170438,0.49Ξ ($73),"Feb 22, 2019",0.49,73,2019-02-22
5534,Sold,0xf5099e,12800693,0.40Ξ ($117),"Aug 19, 2017",0.4,117,2017-08-19
5534,Sold,0x5b098b,10528156,0.20Ξ ($56),"Jun 30, 2017",0.2,56,2017-06-30
5535,Sold,shilpixe…,0x516358,"15Ξ ($30,931)","Apr 05, 2021",15,30931,2021-04-05
5535,Sold,Pranksy,shilpixe…,1.49Ξ ($355),"Jun 03, 2020",1.49,355,2020-06-03
5535,Sold,0xa6e2e9,Pranksy,1Ξ ($177),"Jan 18, 2020",1,177,2020-01-18
5536,Sold,0x5b098b,0x93db36,1.98Ξ ($754),"Sep 20, 2020",1.98,754,2020-09-20
5536,Sold,Cyborg,0x5b098b,0.24Ξ ($63),"Jul 05, 2017",0.24,63,2017-07-05
5537,Sold,10734384,6999246,"19Ξ ($35,210)","Mar 30, 2021",19,35210,2021-03-30
5538,Sold,0xf0f068…,0xd5b171,"7Ξ ($8,090)","Jan 15, 2021",7,8090,2021-01-15
5538,Sold,0x2fdacd,0xf0f068…,"6Ξ ($6,634)","Jan 13, 2021",6,6634,2021-01-13
5542,Sold,cryptoke…,0xe0b432,1.75Ξ ($599),"Sep 22, 2020",1.75,599,2020-09-22
5542,Sold,Pranksy,cryptoke…,1.90Ξ ($717),"Sep 14, 2020",1.9,717,2020-09-14
5542,Sold,Goop,alxo,0.26Ξ ($40),"Nov 23, 2019",0.26,40,2019-11-23
5542,Sold,juggerna…,Goop,0.25Ξ ($38),"Nov 22, 2019",0.25,38,2019-11-22
5543,Sold,0xdae48d,15898135,"8.12Ξ ($14,756)","Feb 13, 2021",8.12,14756,2021-02-13
5544,Sold,0xaae8c5,0x865c96,"4.99Ξ ($4,103)","Jan 03, 2021",4.99,4103,2021-01-03
5544,Sold,OzzMan,0xaae8c5,"4.20Ξ ($3,425)","Jan 03, 2021",4.2,3425,2021-01-03
5544,Sold,7478,OzzMan,0.63Ξ ($132),"Feb 06, 2020",0.63,132,2020-02-06
5544,Sold,ark1,7478,0.30Ξ ($38),"Dec 21, 2019",0.3,38,2019-12-21
5544,Sold,0x00d7c9,ark1,0.25Ξ ($47),"Sep 15, 2019",0.25,47,2019-09-15
5545,Sold,9734672,warrbos.…,0.50Ξ ($133),"Jul 06, 2017",0.5,133,2017-07-06
5545,Sold,5966219,0x948a10,0.20Ξ ($65),"Jun 23, 2017",0.2,65,2017-06-23
5546,Sold,scalynel…,0x4c9692,"5.95Ξ ($4,329)","Dec 30, 2020",5.95,4329,2020-12-30
5546,Sold,0x5b098b,scalynel…,"4.20Ξ ($2,494)","Dec 24, 2020",4.2,2494,2020-12-24
5546,Sold,Punkofth…,0x5b098b,0.10Ξ ($30),"Jun 24, 2017",0.1,30,2017-06-24
5547,Sold,5734076,15363428,"26.99Ξ ($48,738)","Mar 19, 2021",26.99,48738,2021-03-19
5548,Sold,Cyborg,0x7760e0,0.17Ξ ($48),"Jul 02, 2017",0.17,48,2017-07-02
5549,Sold,✨🚀🌙.et…,0x1a4d11,"24.45Ξ ($43,775)","Mar 17, 2021",24.45,43775,2021-03-17
5550,Sold,0x167e00,4069370,"60Ξ ($118,375)","Feb 21, 2021",60,118375,2021-02-21
5550,Sold,0x2fdacd,1474048,"5Ξ ($5,368)","Jan 13, 2021",5,5368,2021-01-13
5552,Sold,0xb40dac,0x25dd15,"3.80Ξ ($1,365)","Sep 28, 2020",3.8,1365,2020-09-28
5552,Sold,Hemba,0xb40dac,"3Ξ ($1,054)","Sep 24, 2020",3,1054,2020-09-24
5553,Sold,0xb6be4d,0x3e17fa,"4.90Ξ ($1,742)","Sep 26, 2020",4.9,1742,2020-09-26
5553,Sold,Hemba,0xb6be4d,1.20Ξ ($485),"Aug 24, 2020",1.2,485,2020-08-24
5555,Sold,veqtor,0x3a4930,1.50Ξ ($341),"Jul 03, 2020",1.5,341,2020-07-03
5557,Sold,Pranksy,0x185703,0.99Ξ ($237),"Jul 15, 2020",0.99,237,2020-07-15
5557,Sold,0x1a96af,Pranksy,0.82Ξ ($166),"May 22, 2020",0.82,166,2020-05-22
5558,Sold,12545231,5642118,"4.50Ξ ($4,908)","Jan 11, 2021",4.5,4908,2021-01-11
5558,Sold,9359671,12545231,"4Ξ ($2,491)","Dec 22, 2020",4,2491,2020-12-22
5559,Sold,0xca37d8,0xb9c29b,"26Ξ ($37,305)","Mar 01, 2021",26,37305,2021-03-01
5559,Sold,heeee.et…,0xca37d8,"15.99Ξ ($31,560)","Feb 19, 2021",15.99,31560,2021-02-19
5559,Sold,DB,heeee.et…,"8Ξ ($14,765)","Feb 14, 2021",8,14765,2021-02-14
5559,Sold,0xb40dac,DB,"3.30Ξ ($1,151)","Sep 26, 2020",3.3,1151,2020-09-26
5559,Sold,0x5aaeb9,0xb40dac,2.60Ξ ($913),"Sep 24, 2020",2.6,913,2020-09-24
5559,Sold,0x74b9d2,0x5aaeb9,2.50Ξ ($865),"Sep 24, 2020",2.5,865,2020-09-24
5559,Sold,0x11c9a7,0x74b9d2,2.19Ξ ($703),"Sep 23, 2020",2.19,703,2020-09-23
5559,Sold,Pranksy,0x11c9a7,1.99Ξ ($674),"Sep 23, 2020",1.99,674,2020-09-23
5559,Sold,Hemba,Pranksy,1.80Ξ ($607),"Sep 22, 2020",1.8,607,2020-09-22
5560,Sold,0x1da533,0x3e17fa,"3.90Ξ ($1,379)","Sep 26, 2020",3.9,1379,2020-09-26
5560,Sold,Hemba,DANNY,1.30Ξ ($262),"May 22, 2020",1.3,262,2020-05-22
5561,Sold,0x6a22c7,Sixty,1Ξ ($241),"Jul 11, 2020",1,241,2020-07-11
5561,Sold,Cyborg,0x6a22c7,0.10Ξ ($98),"Jan 23, 2018",0.1,98,2018-01-23
5564,Sold,0x4322d6,0x5e7ab9,"3.40Ξ ($2,008)","Dec 14, 2020",3.4,2008,2020-12-14
5564,Sold,capital_…,0x4322d6,"4.99Ξ ($3,078)","Nov 24, 2020",4.99,3078,2020-11-24
5564,Sold,0x11c9a7,capital_…,2.50Ξ ($943),"Sep 14, 2020",2.5,943,2020-09-14
5564,Sold,VonMises,0x11c9a7,1.75Ξ ($664),"Sep 13, 2020",1.75,664,2020-09-13
5564,Sold,shilpixe…,VonMises,0.75Ξ ($146),"Apr 26, 2020",0.75,146,2020-04-26
5565,Sold,1665597,8010080,"4.75Ξ ($1,778)","Oct 12, 2020",4.75,1778,2020-10-12
5565,Sold,2155398,1665597,1.20Ξ ($465),"Sep 13, 2020",1.2,465,2020-09-13
5567,Sold,0x6a43e6,0x12dc05,"23Ξ ($41,030)","Mar 21, 2021",23,41030,2021-03-21
5567,Sold,OnlyToas…,0x6a43e6,"18Ξ ($34,814)","Feb 21, 2021",18,34814,2021-02-21
5567,Sold,0x6f4a2d,OnlyToas…,"16Ξ ($31,146)","Feb 21, 2021",16,31146,2021-02-21
5569,Sold,0x47d4f2,16714708,"49.80Ξ ($75,071)","Feb 26, 2021",49.8,75071,2021-02-26
5570,Sold,juggerna…,ArtBlock…,0.25Ξ ($41),"Oct 23, 2019",0.25,41,2019-10-23
5575,Sold,0x07c5ea,0x3731a5,"12.90Ξ ($23,737)","Feb 17, 2021",12.9,23737,2021-02-17
5575,Sold,0xc155f9,0x07c5ea,"11.88Ξ ($21,861)","Feb 17, 2021",11.88,21861,2021-02-17
5575,Sold,Carlini8,0xc155f9,"5Ξ ($1,772)","Sep 29, 2020",5,1772,2020-09-29
5575,Sold,Loopify,Carlini8,"5Ξ ($1,816)","Sep 28, 2020",5,1816,2020-09-28
5575,Sold,Pranksy,Loopify,"4.79Ξ ($1,741)","Sep 28, 2020",4.79,1741,2020-09-28
5575,Sold,0xef764b…,Pranksy,"3.99Ξ ($1,427)","Sep 28, 2020",3.99,1427,2020-09-28
5575,Sold,Hemba,0xef764b…,2.30Ξ ($796),"Sep 24, 2020",2.3,796,2020-09-24
5576,Sold,55241,Kenney,0.10Ξ ($59),"May 26, 2018",0.1,59,2018-05-26
5579,Sold,0x13816f,0xb783cd,"24.88Ξ ($46,651)","Feb 22, 2021",24.88,46651,2021-02-22
5579,Sold,Thing,0x13816f,"5.69Ξ ($2,024)","Sep 30, 2020",5.69,2024,2020-09-30
5579,Sold,GoWest23,Thing,"5.25Ξ ($1,906)","Sep 28, 2020",5.25,1906,2020-09-28
5579,Sold,Pranksy,GoWest23,0.50Ξ ($67),"Jan 04, 2020",0.5,67,2020-01-04
5579,Sold,0x00d7c9,Pranksy,0.25Ξ ($45),"Sep 02, 2019",0.25,45,2019-09-02
5580,Sold,55241,PB,0.45Ξ ($111),"May 23, 2019",0.45,111,2019-05-23
5581,Sold,0xe4c479,0x7f3560,"3.50Ξ ($1,235)","Sep 27, 2020",3.5,1235,2020-09-27
5581,Sold,Hemba,0xe4c479,"3.25Ξ ($1,236)","Sep 20, 2020",3.25,1236,2020-09-20
5582,Sold,12743405,328025,"22Ξ ($39,421)","Mar 08, 2021",22,39421,2021-03-08
5583,Sold,TokenAng…,Cry,"8Ξ ($1,645)","May 27, 2020",8,1645,2020-05-27
5583,Sold,0xd4fa6e,TokenAng…,2Ξ ($528),"Jun 14, 2019",2,528,2019-06-14
5584,Sold,bradmill…,0xbc2a43,"25.13Ξ ($54,860)","Apr 12, 2021",25.13,54860,2021-04-12
5584,Sold,0xe4c479,bradmill…,"2.90Ξ ($1,022)","Sep 26, 2020",2.9,1022,2020-09-26
5584,Sold,Hemba,0xe4c479,2.50Ξ ($951),"Sep 20, 2020",2.5,951,2020-09-20
5586,Sold,7293485,4769884,"35Ξ ($65,725)","Feb 22, 2021",35,65725,2021-02-22
5589,Sold,Pranksy,qiwave,1.49Ξ ($326),"Jun 28, 2020",1.49,326,2020-06-28
5589,Sold,davey.et…,Pranksy,1Ξ ($214),"May 20, 2020",1,214,2020-05-20
5589,Sold,Pranksy,davey.et…,0.50Ξ ($68),"Jan 05, 2020",0.5,68,2020-01-05
5589,Sold,0x00d7c9,Pranksy,0.25Ξ ($53),"Aug 12, 2019",0.25,53,2019-08-12
5590,Sold,Pranksy,Dude_Nak…,1.25Ξ ($460),"Sep 11, 2020",1.25,460,2020-09-11
5590,Sold,0x00d7c9,Pranksy,0.25Ξ ($45),"Sep 02, 2019",0.25,45,2019-09-02
5591,Sold,784659,8008732,0.20Ξ ($56),"Jun 30, 2017",0.2,56,2017-06-30
5592,Sold,Alex3422,0x1f8add,2Ξ ($419),"May 21, 2020",2,419,2020-05-21
5592,Sold,TweetyPi…,Alex3422,0.80Ξ ($114),"Jan 11, 2020",0.8,114,2020-01-11
5592,Sold,Hemba,TweetyPi…,0.55Ξ ($73),"Jan 04, 2020",0.55,73,2020-01-04
5593,Sold,784659,45688,0.29Ξ ($78),"Jul 04, 2017",0.29,78,2017-07-04
5601,Sold,0xa3cb30,16037029,"115Ξ ($200,282)","Mar 12, 2021",115,200282,2021-03-12
5602,Sold,0x939183,7278964,"20Ξ ($35,549)","Mar 19, 2021",20,35549,2021-03-19
5602,Sold,0x7f6ca7,9671043,0.20Ξ ($20),"Dec 05, 2018",0.2,20,2018-12-05
5602,Sold,0x8234be,8350887,0.10Ξ ($69),"Dec 14, 2017",0.1,69,2017-12-14
5603,Sold,0xb6681a,0x1857bc,"7.50Ξ ($13,791)","Feb 14, 2021",7.5,13791,2021-02-14
5603,Sold,0x033ee7,0xb6681a,"5.62Ξ ($7,805)","Feb 02, 2021",5.62,7805,2021-02-02
5603,Sold,0xe4c479,0x033ee7,"2.90Ξ ($1,031)","Sep 26, 2020",2.9,1031,2020-09-26
5603,Sold,Hemba,0xe4c479,2.50Ξ ($951),"Sep 20, 2020",2.5,951,2020-09-20
5604,Sold,iPhone,0x979a0c,"8.50Ξ ($15,436)","Feb 14, 2021",8.5,15436,2021-02-14
5604,Sold,thi,iPhone,"5.78Ξ ($2,052)","Sep 30, 2020",5.78,2052,2020-09-30
5604,Sold,Hemba,thi,1Ξ ($373),"Sep 10, 2020",1,373,2020-09-10
5612,Sold,0x135bd1,KennyB,"4.50Ξ ($1,878)","Oct 23, 2020",4.5,1878,2020-10-23
5612,Sold,0x67b404,0x135bd1,"7Ξ ($2,454)","Oct 05, 2020",7,2454,2020-10-05
5612,Sold,Pranksy,0x67b404,1.49Ξ ($361),"Jun 23, 2020",1.49,361,2020-06-23
5612,Sold,0x00d7c9,Pranksy,0.40Ξ ($125),"Jul 08, 2019",0.4,125,2019-07-08
5613,Sold,0xe45df5,10571908,0.80Ξ ($132),"Jan 15, 2020",0.8,132,2020-01-15
5614,Sold,0xb1a875,0x0ebd1a,"9.85Ξ ($17,409)","Feb 17, 2021",9.85,17409,2021-02-17
5614,Sold,kyloren,0xb1a875,"5.90Ξ ($10,544)","Feb 11, 2021",5.9,10544,2021-02-11
5614,Sold,0xe754d1,kyloren,"5.20Ξ ($1,840)","Sep 29, 2020",5.2,1840,2020-09-29
5614,Sold,MrNFT,0xe754d1,"3.43Ξ ($1,229)","Sep 28, 2020",3.43,1229,2020-09-28
5614,Sold,0x3ba9cd,MrNFT,"3.10Ξ ($1,091)","Sep 27, 2020",3.1,1091,2020-09-27
5614,Sold,Carlini8,0x3ba9cd,2Ξ ($679),"Sep 23, 2020",2,679,2020-09-23
5614,Sold,Hemba,Carlini8,1.55Ξ ($583),"Sep 14, 2020",1.55,583,2020-09-14
5616,Sold,14966261,2390212,0.70Ξ ($151),"Jul 21, 2017",0.7,151,2017-07-21
5617,Sold,6689278,7418498,"43.33Ξ ($62,022)","Mar 01, 2021",43.33,62022,2021-03-01
5619,Sold,0x13816f,0x75bb8e,"32.50Ξ ($61,030)","Feb 22, 2021",32.5,61030,2021-02-22
5619,Sold,CPyrc,0x13816f,"7.75Ξ ($2,728)","Oct 05, 2020",7.75,2728,2020-10-05
5619,Sold,KittyGr_…,CPyrc,"5Ξ ($1,769)","Oct 05, 2020",5,1769,2020-10-05
5619,Sold,0x00d7c9,KittyGr_…,0.10Ξ ($60),"Jun 08, 2018",0.1,60,2018-06-08
5620,Sold,Hemba,0x9b35db,1.10Ξ ($430),"Aug 28, 2020",1.1,430,2020-08-28
5621,Sold,48442,7418569,0.59Ξ ($115),"Jul 19, 2017",0.59,115,2017-07-19
5621,Sold,5966219,48442,0.03Ξ ($10),"Jun 23, 2017",0.03,10,2017-06-23
5623,Sold,Hemba,0x7760e0,0.30Ξ ($96),"Nov 09, 2017",0.3,96,2017-11-09
5624,Sold,48442,8008732,0.19Ξ ($50),"Jul 01, 2017",0.19,50,2017-07-01
5624,Sold,5966219,48442,0.06Ξ ($20),"Jun 23, 2017",0.06,20,2017-06-23
5625,Sold,2299655,2994628,0.60Ξ ($107),"Nov 18, 2018",0.6,107,2018-11-18
5626,Sold,0xce3ecc,beautifu…,"42Ξ ($70,252)","Mar 26, 2021",42,70252,2021-03-26
5626,Sold,0xa3cb30,0x701f37,"14.99Ξ ($25,544)","Feb 15, 2021",14.99,25544,2021-02-15
5629,Sold,0xf1b658,4192276,"15Ξ ($28,806)","Feb 19, 2021",15,28806,2021-02-19
5629,Sold,0xa3cb30,15840856,"9.30Ξ ($16,146)","Feb 10, 2021",9.3,16146,2021-02-10
5631,Sold,hellogar…,odious.e…,"36Ξ ($67,724)","Mar 15, 2021",36,67724,2021-03-15
5631,Sold,TokenAng…,hellogar…,"35Ξ ($64,930)","Feb 22, 2021",35,64930,2021-02-22
5631,Sold,0x6e5e91,TokenAng…,1.85Ξ ($716),"Sep 13, 2020",1.85,716,2020-09-13
5631,Sold,0x231707,0x6e5e91,2Ξ ($412),"May 27, 2020",2,412,2020-05-27
5632,Sold,0xf79a79,0xa22ac4,"6Ξ ($2,483)","Oct 24, 2020",6,2483,2020-10-24
5632,Sold,Hemba,0x2e2e26,0.40Ξ ($56),"Dec 24, 2018",0.4,56,2018-12-24
5633,Sold,9734672,45688,0.30Ξ ($83),"Jul 03, 2017",0.3,83,2017-07-03
5633,Sold,5966219,9734672,0.30Ξ ($98),"Jun 23, 2017",0.3,98,2017-06-23
5634,Sold,1742511,13015780,1.23Ξ ($246),"May 26, 2020",1.23,246,2020-05-26
5635,Sold,0xf7c889,0x2e0840,"24.95Ξ ($36,845)","Mar 02, 2021",24.95,36845,2021-03-02
5635,Sold,0x13816f,0xf7c889,"26.88Ξ ($47,932)","Feb 22, 2021",26.88,47932,2021-02-22
5635,Sold,0x067034,0x13816f,"4.70Ξ ($1,682)","Sep 28, 2020",4.7,1682,2020-09-28
5635,Sold,Carlini8,0x067034,"4.50Ξ ($1,645)","Sep 15, 2020",4.5,1645,2020-09-15
5635,Sold,0x11c9a7,Carlini8,2.22Ξ ($821),"Sep 15, 2020",2.22,821,2020-09-15
5635,Sold,OnlyToas…,0x11c9a7,2.08Ξ ($785),"Sep 15, 2020",2.08,785,2020-09-15
5635,Sold,DANNY,OnlyToas…,2Ξ ($746),"Sep 14, 2020",2,746,2020-09-14
5635,Sold,nighty,DANNY,0.75Ξ ($152),"May 14, 2020",0.75,152,2020-05-14
5635,Sold,Pranksy,nighty,0.65Ξ ($93),"Jan 10, 2020",0.65,93,2020-01-10
5635,Sold,0x00d7c9,Pranksy,0.25Ξ ($45),"Sep 02, 2019",0.25,45,2019-09-02
5636,Sold,6827056,5772875,0.39Ξ ($90),"Jul 22, 2017",0.39,90,2017-07-22
5637,Sold,0x87e225,Pixls,0.40Ξ ($67),"Apr 16, 2019",0.4,67,2019-04-16
5637,Sold,DjangoBi…,0x87e225,0.30Ξ ($46),"Jan 07, 2019",0.3,46,2019-01-07
5637,Sold,0x682c30,0x9be1c7,0.25Ξ ($69),"Jul 03, 2017",0.25,69,2017-07-03
5638,Sold,4069370,12189147,"16.50Ξ ($32,554)","Feb 20, 2021",16.5,32554,2021-02-20
5638,Sold,9862885,4069370,"16.36Ξ ($29,495)","Feb 17, 2021",16.36,29495,2021-02-17
5638,Sold,10734384,9862885,"11.50Ξ ($20,562)","Feb 16, 2021",11.5,20562,2021-02-16
5639,Sold,Pranksy,0x20f9dd,"39.99Ξ ($66,431)","Mar 07, 2021",39.99,66431,2021-03-07
5639,Sold,0x577ebc,Pranksy,"12.35Ξ ($19,863)","Feb 04, 2021",12.35,19863,2021-02-04
5640,Sold,0x267e95,12362447,"19Ξ ($35,019)","Mar 30, 2021",19,35019,2021-03-30
5640,Sold,0xa3cb30,2522773,"17.50Ξ ($32,139)","Mar 30, 2021",17.5,32139,2021-03-30
5644,Sold,antunes_…,0x0738c7,"25Ξ ($48,574)","Feb 21, 2021",25,48574,2021-02-21
5644,Sold,0x677b43,antunes_…,0.96Ξ ($258),"Jun 16, 2019",0.96,258,2019-06-16
5644,Sold,0x5b098b,0x677b43,0.38Ξ ($72),"Jul 11, 2017",0.38,72,2017-07-11
5645,Sold,0x8234be,Kenney,0.65Ξ ($353),"Mar 23, 2018",0.65,353,2018-03-23
5647,Sold,0xa3cb30,0x11c9a7,"21.50Ξ ($12,984)","Dec 23, 2020",21.5,12984,2020-12-23
5648,Sold,0xf1b658,15374116,"6Ξ ($7,688)","Jan 28, 2021",6,7688,2021-01-28
5648,Sold,0x2fdacd,15840856,"5Ξ ($6,165)","Jan 14, 2021",5,6165,2021-01-14
5651,Sold,10734384,14548427,"39.99Ξ ($71,539)","Mar 16, 2021",39.99,71539,2021-03-16
5652,Sold,55241,Misha,0.10Ξ ($51),"May 28, 2018",0.1,51,2018-05-28
5653,Sold,733437,45688,0.33Ξ ($80),"Jul 07, 2017",0.33,80,2017-07-07
5655,Sold,Hemba,Tschuuul…,0.42Ξ ($49),"Jan 26, 2019",0.42,49,2019-01-26
5657,Sold,✨🚀🌙.et…,0x921540,"20.50Ξ ($30,377)","Mar 05, 2021",20.5,30377,2021-03-05
5659,Sold,147191,9407303,"32.99Ξ ($48,615)","Mar 05, 2021",32.99,48615,2021-03-05
5659,Sold,14602955,147191,"20Ξ ($28,845)","Feb 28, 2021",20,28845,2021-02-28
5660,Sold,shilpixe…,0x0e6167,"18Ξ ($35,512)","Feb 21, 2021",18,35512,2021-02-21
5661,Sold,Hemba,0x58164b,0.37Ξ ($72),"Jul 19, 2017",0.37,72,2017-07-19
5662,Sold,8533182,10898397,0.10Ξ ($51),"Dec 11, 2017",0.1,51,2017-12-11
5664,Sold,0xe4c479,0xec4b06,"3Ξ ($1,036)","Sep 25, 2020",3,1036,2020-09-25
5664,Sold,Hemba,0xe4c479,2.50Ξ ($951),"Sep 20, 2020",2.5,951,2020-09-20
5668,Sold,16058782,9100287,0.35Ξ ($245),"Dec 13, 2017",0.35,245,2017-12-13
5668,Sold,8533182,10528156,0.25Ξ ($64),"Sep 21, 2017",0.25,64,2017-09-21
5670,Sold,Zieg,0x717403,0.31Ξ ($103),"Nov 15, 2017",0.31,103,2017-11-15
5671,Sold,11844417,3773337,"25.99Ξ ($46,519)","Mar 21, 2021",25.99,46519,2021-03-21
5671,Sold,14602955,11844417,"20Ξ ($28,845)","Feb 28, 2021",20,28845,2021-02-28
5672,Sold,pinkiepi…,0x568cf5,"4Ξ ($2,507)","Dec 22, 2020",4,2507,2020-12-22
5672,Sold,0x3e17fa,2pac,"3.70Ξ ($2,246)","Nov 24, 2020",3.7,2246,2020-11-24
5672,Sold,0xe4c479,0x3e17fa,"3.30Ξ ($1,168)","Sep 26, 2020",3.3,1168,2020-09-26
5672,Sold,Hemba,0xe4c479,"3.50Ξ ($1,229)","Sep 26, 2020",3.5,1229,2020-09-26
5674,Sold,Gmugr,0xcd9dc7,"14.22Ξ ($26,166)","Feb 18, 2021",14.22,26166,2021-02-18
5674,Sold,0x13816f,Gmugr,"9.50Ξ ($16,590)","Feb 17, 2021",9.5,16590,2021-02-17
5674,Sold,GoWest23,0x13816f,"5.65Ξ ($1,992)","Sep 29, 2020",5.65,1992,2020-09-29
5674,Sold,Hemba,GoWest23,0.44Ξ ($72),"Apr 06, 2019",0.44,72,2019-04-06
5676,Sold,12743405,15693900,"33Ξ ($61,258)","Mar 14, 2021",33,61258,2021-03-14
5679,Sold,9952039,5786847,"44.99Ξ ($92,995)","Apr 08, 2021",44.99,92995,2021-04-08
5679,Sold,15840856,9952039,"30Ξ ($57,326)","Feb 19, 2021",30,57326,2021-02-19
5679,Sold,5734076,15840856,"33Ξ ($61,310)","Feb 18, 2021",33,61310,2021-02-18
5680,Sold,55241,0x00bd3a,0.40Ξ ($92),"Jul 22, 2017",0.4,92,2017-07-22
5682,Sold,ross_VRO…,0x196a3d,1.89Ξ ($732),"Sep 13, 2020",1.89,732,2020-09-13
5682,Sold,Hemba,ross_VRO…,1.50Ξ ($302),"May 26, 2020",1.5,302,2020-05-26
5683,Sold,0x13816f,0x6130d3,"13.35Ξ ($25,512)","Feb 19, 2021",13.35,25512,2021-02-19
5683,Sold,0xe754d1,0x13816f,"4.99Ξ ($1,765)","Sep 29, 2020",4.99,1765,2020-09-29
5683,Sold,Pranksy,0xe754d1,"3.20Ξ ($1,135)","Sep 27, 2020",3.2,1135,2020-09-27
5683,Sold,Hemba,Pranksy,2.30Ξ ($796),"Sep 24, 2020",2.3,796,2020-09-24
5684,Sold,natealex,DANNY,"44Ξ ($15,514)","Sep 06, 2020",44,15514,2020-09-06
5684,Sold,Zieg,natealex,"7.50Ξ ($1,005)","Jan 04, 2020",7.5,1005,2020-01-04
5684,Sold,straybit…,Zieg,2Ξ ($394),"Jul 30, 2017",2,394,2017-07-30
5684,Sold,0xef768e,straybit…,1Ξ ($238),"Jul 09, 2017",1,238,2017-07-09
5685,Sold,0xfeeb2d,337252,"39.70Ξ ($84,987)","Apr 12, 2021",39.7,84987,2021-04-12
5686,Sold,0xc6a3ec,0x4ffef8,"21Ξ ($36,141)","Mar 27, 2021",21,36141,2021-03-27
5686,Sold,0xddfdcb,0xc6a3ec,"22.49Ξ ($38,645)","Mar 23, 2021",22.49,38645,2021-03-23
5686,Sold,0x13816f,0xddfdcb,"10Ξ ($18,186)","Feb 14, 2021",10,18186,2021-02-14
5686,Sold,Michel_M…,0x13816f,"5.40Ξ ($1,986)","Oct 01, 2020",5.4,1986,2020-10-01
5686,Sold,GoWest23,Michel_M…,"6.04Ξ ($2,148)","Sep 29, 2020",6.04,2148,2020-09-29
5686,Sold,0x00d7c9,GoWest23,0.50Ξ ($87),"May 06, 2019",0.5,87,2019-05-06
5687,Sold,0xbf8090,0x1fe03a,"23.25Ξ ($49,546)","Apr 11, 2021",23.25,49546,2021-04-11
5687,Sold,0x033ee7,0xbf8090,"14.79Ξ ($28,606)","Feb 21, 2021",14.79,28606,2021-02-21
5687,Sold,MrNFT,0x033ee7,2.85Ξ ($986),"Sep 24, 2020",2.85,986,2020-09-24
5687,Sold,Pranksy,MrNFT,2.19Ξ ($757),"Sep 24, 2020",2.19,757,2020-09-24
5687,Sold,Hemba,Pranksy,1.80Ξ ($613),"Sep 22, 2020",1.8,613,2020-09-22
5689,Sold,shilpixe…,0x374bd1,0.49Ξ ($120),"May 23, 2019",0.49,120,2019-05-23
5690,Sold,jmg,0xe9e7b8,"37.89Ξ ($18,069)","Nov 19, 2020",37.89,18069,2020-11-19
5690,Sold,Michel_M…,jmg,"33Ξ ($13,765)","Oct 22, 2020",33,13765,2020-10-22
5690,Sold,0x4d17cf,Michel_M…,"4Ξ ($1,584)","Oct 21, 2020",4,1584,2020-10-21
5692,Sold,0x7f8d2e,sov,2.84Ξ ($644),"Jul 20, 2017",2.84,644,2017-07-20
5692,Sold,0x22160e,0x7f8d2e,3.98Ξ ($904),"Jul 18, 2017",3.98,904,2017-07-18
5695,Sold,15978765,12008756,"28Ξ ($51,258)","Mar 09, 2021",28,51258,2021-03-09
5695,Sold,3413343,11954202,"11.11Ξ ($20,687)","Feb 13, 2021",11.11,20687,2021-02-13
5698,Sold,Hemba,0x0452b1,0.95Ξ ($125),"Mar 21, 2020",0.95,125,2020-03-21
5701,Sold,9038541,11358055,"21.99Ξ ($36,259)","Feb 24, 2021",21.99,36259,2021-02-24
5701,Sold,798329,9038541,"20Ξ ($32,238)","Feb 24, 2021",20,32238,2021-02-24
5701,Sold,11976269,798329,0.09Ξ ($42),"Dec 03, 2017",0.09,42,2017-12-03
5702,Sold,Dude_Nak…,0xad4f9e,"6.25Ξ ($2,358)","Oct 15, 2020",6.25,2358,2020-10-15
5702,Sold,Pranksy,Dude_Nak…,1.25Ξ ($457),"Sep 11, 2020",1.25,457,2020-09-11
5702,Sold,0xe45df5,Pranksy,1Ξ ($177),"Jan 18, 2020",1,177,2020-01-18
5705,Sold,0xff40d2,0x6ef237,"5.40Ξ ($3,608)","Dec 27, 2020",5.4,3608,2020-12-27
5705,Sold,ManOverb…,0xff40d2,"5Ξ ($1,926)","Oct 31, 2020",5,1926,2020-10-31
5705,Sold,0x7a37a1,ManOverb…,"5Ξ ($2,065)","Oct 24, 2020",5,2065,2020-10-24
5705,Sold,0x4fa27c,0x7a37a1,"5.60Ξ ($2,059)","Oct 17, 2020",5.6,2059,2020-10-17
5705,Sold,MrTpunks…,0x4fa27c,"5.75Ξ ($2,142)","Oct 11, 2020",5.75,2142,2020-10-11
5705,Sold,BitcoinG…,MrTpunks…,"6.50Ξ ($2,254)","Oct 04, 2020",6.5,2254,2020-10-04
5705,Sold,evkort,BitcoinG…,"5.99Ξ ($2,091)","Oct 03, 2020",5.99,2091,2020-10-03
5705,Sold,0x2aa720,evkort,"5.20Ξ ($1,888)","Sep 28, 2020",5.2,1888,2020-09-28
5705,Sold,0x69405f,0x2aa720,"4.99Ξ ($1,814)","Sep 28, 2020",4.99,1814,2020-09-28
5705,Sold,0x11c9a7,0x69405f,"4.88Ξ ($1,753)","Sep 28, 2020",4.88,1753,2020-09-28
5705,Sold,kingskin…,0x11c9a7,"4.50Ξ ($1,617)","Sep 28, 2020",4.5,1617,2020-09-28
5705,Sold,Pranksy,kingskin…,2.25Ξ ($857),"Sep 20, 2020",2.25,857,2020-09-20
5705,Sold,Hemba,evkort,2Ξ ($729),"Sep 14, 2020",2,729,2020-09-14
5706,Sold,15693900,3548383,"37Ξ ($70,690)","Mar 13, 2021",37,70690,2021-03-13
5706,Sold,5091065,15693900,"25Ξ ($45,899)","Mar 10, 2021",25,45899,2021-03-10
5706,Sold,1748239,5091065,"25Ξ ($38,485)","Feb 23, 2021",25,38485,2021-02-23
5706,Sold,55241,1748239,0.25Ξ ($65),"Sep 17, 2017",0.25,65,2017-09-17
5707,Sold,0xc00c2b,5639058,0.64Ξ ($122),"Jul 11, 2017",0.64,122,2017-07-11
5708,Sold,0x577ebc,ross_VRO…,"14Ξ ($24,102)","Feb 05, 2021",14,24102,2021-02-05
5710,Sold,0x8234be,9218204,0.11Ξ ($76),"Dec 14, 2017",0.11,76,2017-12-14
5711,Sold,0xe5e64f,0xd030b1,"7Ξ ($12,273)","Feb 09, 2021",7,12273,2021-02-09
5711,Sold,cryptosa…,0xe5e64f,0.75Ξ ($316),"Aug 31, 2020",0.75,316,2020-08-31
5711,Sold,0x376822,cryptosa…,1Ξ ($203),"May 22, 2020",1,203,2020-05-22
5711,Sold,0xcEd199…,0x376822,0.23Ξ ($29),"Nov 22, 2018",0.23,29,2018-11-22
5711,Sold,0x22160e,0xcEd199…,0.39Ξ ($78),"Jul 14, 2017",0.39,78,2017-07-14
5713,Sold,Pranksy,0xaf5e63,1.99Ξ ($394),"May 21, 2020",1.99,394,2020-05-21
5713,Sold,0x4dcaf3,Pranksy,1Ξ ($144),"Jan 06, 2020",1,144,2020-01-06
5713,Sold,0xe45df5,0x4dcaf3,0.90Ξ ($217),"Jul 07, 2017",0.9,217,2017-07-07
5715,Sold,DjangoBi…,0x6bf36c,0.30Ξ ($69),"Oct 01, 2018",0.3,69,2018-10-01
5715,Sold,0xf138eb,0x9be1c7,0.20Ξ ($51),"Jun 26, 2017",0.2,51,2017-06-26
5716,Sold,8533182,0x00bd3a,0.45Ξ ($136),"Aug 16, 2017",0.45,136,2017-08-16
5717,Sold,Hemba,0x3a4930,1.90Ξ ($382),"May 26, 2020",1.9,382,2020-05-26
5718,Sold,0xa6e2e9,14844345,"21.97Ξ ($38,448)","Mar 17, 2021",21.97,38448,2021-03-17
5719,Sold,jmg,Snowfro,0.99Ξ ($139),"Mar 20, 2019",0.99,139,2019-03-20
5719,Sold,0x5b098b,0x00bd3a,0.04Ξ ($13),"Jun 23, 2017",0.04,13,2017-06-23
5720,Sold,evkort,penguin,"3.50Ξ ($2,021)","Nov 23, 2020",3.5,2021,2020-11-23
5720,Sold,0x231707,evkort,"5Ξ ($1,842)","Sep 15, 2020",5,1842,2020-09-15
5721,Sold,7293485,15329208,"27.58Ξ ($50,665)","Feb 14, 2021",27.58,50665,2021-02-14
5722,Sold,0x13816f,0xac13ad,"14.69Ξ ($28,678)","Feb 21, 2021",14.69,28678,2021-02-21
5722,Sold,Slider92,0x13816f,"5.80Ξ ($2,063)","Sep 30, 2020",5.8,2063,2020-09-30
5722,Sold,Zieg,Slider92,"3.35Ξ ($1,168)","Sep 26, 2020",3.35,1168,2020-09-26
5722,Sold,SharkWha…,Zieg,"3.43Ξ ($1,168)","Sep 25, 2020",3.43,1168,2020-09-25
5722,Sold,Hemba,SharkWha…,2.50Ξ ($865),"Sep 24, 2020",2.5,865,2020-09-24
5724,Sold,5966219,11268359,"26.30Ξ ($56,234)","Apr 11, 2021",26.3,56234,2021-04-11
5725,Sold,EliteCat…,heeee.et…,"25.99Ξ ($44,433)","Feb 15, 2021",25.99,44433,2021-02-15
5725,Sold,0x5b098b,EliteCat…,"16.30Ξ ($26,271)","Feb 08, 2021",16.3,26271,2021-02-08
5726,Sold,13911083,7115005,"17.60Ξ ($35,394)","Apr 07, 2021",17.6,35394,2021-04-07
5726,Sold,10734384,13911083,"16Ξ ($33,920)","Apr 05, 2021",16,33920,2021-04-05
5727,Sold,GoWest23,0xaf5e63,"6.10Ξ ($1,227)","May 16, 2020",6.1,1227,2020-05-16
5727,Sold,0x5b098b,GoWest23,2.50Ξ ($407),"Jan 15, 2020",2.5,407,2020-01-15
5728,Sold,NFTinTin,0x9fdaaf,0.83Ξ ($151),"Oct 25, 2019",0.83,151,2019-10-25
5728,Sold,0xc2ac3c,NFTinTin,0.37Ξ ($56),"Jan 09, 2019",0.37,56,2019-01-09
5728,Sold,0x8234be,0xb11d6a,0.27Ξ ($71),"Sep 22, 2017",0.27,71,2017-09-22
5730,Sold,2672791,TokenAng…,2.50Ξ ($503),"May 26, 2020",2.5,503,2020-05-26
5730,Sold,6827056,0x28c897,0.49Ξ ($110),"Jul 12, 2017",0.49,110,2017-07-12
5731,Sold,10734384,337252,"16Ξ ($29,497)","Mar 30, 2021",16,29497,2021-03-30
5732,Sold,0x5b331e,0x1b5038,"26Ξ ($41,382)","Feb 25, 2021",26,41382,2021-02-25
5732,Sold,0x561786,0x5b331e,"22Ξ ($40,846)","Feb 22, 2021",22,40846,2021-02-22
5732,Sold,CPyrc,0x561786,"5.45Ξ ($5,886)","Jan 12, 2021",5.45,5886,2021-01-12
5732,Sold,0x3d826e,CPyrc,"3Ξ ($3,285)","Jan 05, 2021",3,3285,2021-01-05
5732,Sold,0x60206c,0x3d826e,0.30Ξ ($341),"Jan 08, 2018",0.3,341,2018-01-08
5733,Sold,0xbf6ccf,0xcf6165,"4.65Ξ ($5,569)","Jan 06, 2021",4.65,5569,2021-01-06
5733,Sold,GtC,0xbf6ccf,"4.20Ξ ($2,410)","Dec 24, 2020",4.2,2410,2020-12-24
5733,Sold,0x00d7c9,GtC,0.25Ξ ($45),"Sep 03, 2019",0.25,45,2019-09-03
5734,Sold,straybit…,0x13579f,"91.50Ξ ($165,343)","Mar 19, 2021",91.5,165343,2021-03-19
5734,Sold,0x682c30,0x00bd3a,0.25Ξ ($79),"Jun 28, 2017",0.25,79,2017-06-28
5737,Sold,0xc2ac3c,Pixls,0.12Ξ ($35),"Sep 01, 2018",0.12,35,2018-09-01
5737,Sold,0x8ba3e2,0xb11d6a,0.07Ξ ($21),"Oct 29, 2017",0.07,21,2017-10-29
5737,Sold,0x8234be,0x8ba3e2,0.05Ξ ($15),"Sep 30, 2017",0.05,15,2017-09-30
5742,Sold,0x5462de,0x00d7c9,1Ξ ($316),"Jun 28, 2017",1,316,2017-06-28
5744,Sold,shilpixe…,0x51636d,"22.50Ξ ($41,521)","Mar 30, 2021",22.5,41521,2021-03-30
5748,Sold,Party,0x2b9324,"7.50Ξ ($9,225)","Jan 18, 2021",7.5,9225,2021-01-18
5748,Sold,0x2fdacd,Party,"6Ξ ($6,616)","Jan 13, 2021",6,6616,2021-01-13
5749,Sold,Hemba,0xf4a775,0.10Ξ ($46),"Dec 03, 2017",0.1,46,2017-12-03
5750,Sold,5529929,4700042,"50Ξ ($106,747)","Apr 11, 2021",50,106747,2021-04-11
5750,Sold,12878075,5529929,"40Ξ ($84,014)","Apr 05, 2021",40,84014,2021-04-05
5751,Sold,0x9e199d,0xd3e2e7,"20Ξ ($42,764)","Apr 11, 2021",20,42764,2021-04-11
5751,Sold,Hemba,0x9e199d,0.14Ξ ($27),"Oct 12, 2018",0.14,27,2018-10-12
5752,Sold,0xae4d83,0xd69e74,"13.49Ξ ($26,098)","Feb 18, 2021",13.49,26098,2021-02-18
5752,Sold,0x13816f,0xae4d83,"7.69Ξ ($13,905)","Feb 14, 2021",7.69,13905,2021-02-14
5752,Sold,Sted,0x13816f,"4.49Ξ ($2,922)","Dec 27, 2020",4.49,2922,2020-12-27
5752,Sold,0x11c9a7,Sted,"3.19Ξ ($1,126)","Sep 27, 2020",3.19,1126,2020-09-27
5752,Sold,0x5aaeb9,0x11c9a7,"3Ξ ($1,062)","Sep 27, 2020",3,1062,2020-09-27
5752,Sold,0x067034,0x5aaeb9,"2.85Ξ ($1,008)","Sep 26, 2020",2.85,1008,2020-09-26
5752,Sold,Carlini8,0x067034,2.20Ξ ($720),"Sep 24, 2020",2.2,720,2020-09-24
5752,Sold,Pranksy,Carlini8,1.80Ξ ($678),"Sep 14, 2020",1.8,678,2020-09-14
5752,Sold,Hemba,Pranksy,1.35Ξ ($494),"Sep 11, 2020",1.35,494,2020-09-11
5754,Sold,monopoly…,0x72c783,"19Ξ ($36,309)","Feb 19, 2021",19,36309,2021-02-19
5754,Sold,0x09d408,monopoly…,"9Ξ ($15,936)","Feb 12, 2021",9,15936,2021-02-12
5754,Sold,0xf1ce58,0x09d408,"8.50Ξ ($10,774)","Jan 27, 2021",8.5,10774,2021-01-27
5754,Sold,0x087173,RayoVac,"6.90Ξ ($4,465)","Dec 26, 2020",6.9,4465,2020-12-26
5754,Sold,Pranksy,0x087173,"4.55Ξ ($1,571)","Sep 25, 2020",4.55,1571,2020-09-25
5754,Sold,GoWest23,evkort,"5.25Ξ ($1,910)","Sep 15, 2020",5.25,1910,2020-09-15
5754,Sold,Pranksy,GoWest23,0.65Ξ ($87),"Jan 04, 2020",0.65,87,2020-01-04
5754,Sold,0x00d7c9,Pranksy,0.40Ξ ($118),"Jun 21, 2019",0.4,118,2019-06-21
5755,Sold,0x2b0f0d,0x36da87,"21.50Ξ ($38,668)","Mar 11, 2021",21.5,38668,2021-03-11
5755,Sold,0x13816f,0x2b0f0d,"13.88Ξ ($26,703)","Feb 18, 2021",13.88,26703,2021-02-18
5755,Sold,0x3ba9cd,0x13816f,"3.10Ξ ($1,091)","Sep 27, 2020",3.1,1091,2020-09-27
5755,Sold,Carlini8,0x3ba9cd,1.99Ξ ($674),"Sep 23, 2020",1.99,674,2020-09-23
5755,Sold,Hemba,Carlini8,1.40Ξ ($526),"Sep 14, 2020",1.4,526,2020-09-14
5757,Sold,0xe1bb6e,willholt…,"18.99Ξ ($39,253)","Apr 08, 2021",18.99,39253,2021-04-08
5757,Sold,Pranksy,0x585755,0.55Ξ ($99),"Oct 12, 2019",0.55,99,2019-10-12
5757,Sold,0x00d7c9,Pranksy,0.25Ξ ($45),"Sep 02, 2019",0.25,45,2019-09-02
5760,Sold,Hemba,7478,0.82Ξ ($175),"May 19, 2020",0.82,175,2020-05-19
5762,Sold,0x18844b,0x1716c2,"5.62Ξ ($10,227)","Feb 15, 2021",5.62,10227,2021-02-15
5762,Sold,0xd3e2e7,0x18844b,"5.60Ξ ($9,722)","Feb 10, 2021",5.6,9722,2021-02-10
5762,Sold,0xf249bf,0xd3e2e7,"5.60Ξ ($9,665)","Feb 10, 2021",5.6,9665,2021-02-10
5762,Sold,0xc155f9,0xf249bf,"5.39Ξ ($3,415)","Dec 27, 2020",5.39,3415,2020-12-27
5762,Sold,0xe4c479,0xc155f9,"2.90Ξ ($1,021)","Sep 26, 2020",2.9,1021,2020-09-26
5762,Sold,Hemba,0xe4c479,2.80Ξ ($983),"Sep 26, 2020",2.8,983,2020-09-26
5769,Sold,Hemba,0x9b35db,1.40Ξ ($536),"Aug 26, 2020",1.4,536,2020-08-26
5777,Sold,Cyborg,robers,1Ξ ($172),"Apr 22, 2019",1,172,2019-04-22
5778,Sold,13401139,14314424,"21Ξ ($43,115)","Apr 02, 2021",21,43115,2021-04-02
5780,Sold,8533182,7823584,0.20Ξ ($45),"Jul 24, 2017",0.2,45,2017-07-24
5781,Sold,205664,15881823,"10Ξ ($17,356)","Feb 09, 2021",10,17356,2021-02-09
5782,Sold,0x5ff57f,0xcd2b3c,0.50Ξ ($110),"May 29, 2020",0.5,110,2020-05-29
5782,Sold,jmg,0x5ff57f,0.85Ξ ($191),"Feb 10, 2020",0.85,191,2020-02-10
5782,Sold,0x61e7e7,jmg,0.80Ξ ($115),"Jan 12, 2020",0.8,115,2020-01-12
5782,Sold,0x00d7c9,0x581b59,0.40Ξ ($115),"Jul 06, 2019",0.4,115,2019-07-06
5785,Sold,Pranksy,0x51636d,"59Ξ ($102,801)","Mar 11, 2021",59,102801,2021-03-11
5785,Sold,0x09d408,Pranksy,"35Ξ ($49,517)","Feb 02, 2021",35,49517,2021-02-02
5785,Sold,0x8ac65f,0x09d408,"21Ξ ($27,746)","Feb 01, 2021",21,27746,2021-02-01
5786,Sold,0x8234be,7823584,0.05Ξ ($15),"Sep 30, 2017",0.05,15,2017-09-30
5787,Sold,straybit…,0x58164b,2.10Ξ ($413),"Jul 30, 2017",2.1,413,2017-07-30
5788,Sold,0x8234be,Kenney,0.25Ξ ($136),"Mar 23, 2018",0.25,136,2018-03-23
5792,Sold,Korniej,0x584cdf,"9.99Ξ ($18,148)","Feb 15, 2021",9.99,18148,2021-02-15
5792,Sold,coinduph…,Korniej,"3.80Ξ ($1,344)","Sep 27, 2020",3.8,1344,2020-09-27
5792,Sold,Hemba,coinduph…,0.65Ξ ($111),"Apr 17, 2020",0.65,111,2020-04-17
5795,Sold,straybit…,0x6611fe,"8Ξ ($2,212)","Jul 03, 2017",8,2212,2017-07-03
5798,Sold,0x8234be,Kenney,0.55Ξ ($384),"Mar 08, 2018",0.55,384,2018-03-08
5800,Sold,0x58164b,7823584,0.05Ξ ($57),"Jan 07, 2018",0.05,57,2018-01-07
5802,Sold,Cyborg,0x717403,0.25Ξ ($66),"Jul 05, 2017",0.25,66,2017-07-05
5803,Sold,MT1000,0xa66f42,"4.99Ξ ($6,785)","Jan 29, 2021",4.99,6785,2021-01-29
5803,Sold,0x033ee7,MT1000,"4.33Ξ ($5,468)","Jan 27, 2021",4.33,5468,2021-01-27
5803,Sold,MrNFT,0x033ee7,2.85Ξ ($986),"Sep 24, 2020",2.85,986,2020-09-24
5803,Sold,Pranksy,MrNFT,2.19Ξ ($757),"Sep 24, 2020",2.19,757,2020-09-24
5803,Sold,Hemba,Pranksy,1.80Ξ ($613),"Sep 22, 2020",1.8,613,2020-09-22
5807,Sold,0x023ef7,4933565,"22.30Ξ ($35,004)","Mar 04, 2021",22.3,35004,2021-03-04
5807,Sold,0xa6e2e9,147191,"22.50Ξ ($35,207)","Feb 23, 2021",22.5,35207,2021-02-23
5808,Sold,7434510,Kenney,0.27Ξ ($283),"Jan 26, 2018",0.27,283,2018-01-26
5809,Sold,Korniej,MrTpunks,"23Ξ ($43,750)","Feb 18, 2021",23,43750,2021-02-18
5809,Sold,coinduph…,Korniej,"7.77Ξ ($2,680)","Sep 25, 2020",7.77,2680,2020-09-25
5809,Sold,Hemba,coinduph…,0.25Ξ ($151),"Apr 21, 2018",0.25,151,2018-04-21
5810,Sold,Hemba,sov,2Ξ ($415),"May 27, 2020",2,415,2020-05-27
5811,Sold,0x2fdacd,CPyrc,"5Ξ ($5,514)","Jan 13, 2021",5,5514,2021-01-13
5814,Sold,0xa3cb30,10715531,"19Ξ ($34,875)","Mar 31, 2021",19,34875,2021-03-31
5815,Sold,0x8bb4f3,0x6a0ed3,"8Ξ ($13,893)","Feb 09, 2021",8,13893,2021-02-09
5815,Sold,Pranksy,0x8bb4f3,"4.60Ξ ($5,386)","Jan 22, 2021",4.6,5386,2021-01-22
5815,Sold,0x2fdacd,0x5b331e,"4.26Ξ ($5,224)","Jan 14, 2021",4.26,5224,2021-01-14
5817,Sold,55241,9483859,0.05Ξ ($28),"May 30, 2018",0.05,28,2018-05-30
5820,Sold,0x1a96af,AZonneve…,0.99Ξ ($204),"May 21, 2020",0.99,204,2020-05-21
5822,Sold,straybit…,0x00b278,"8Ξ ($1,646)","Jul 10, 2017",8,1646,2017-07-10
5823,Sold,5976862,150475,"37Ξ ($71,224)","Feb 21, 2021",37,71224,2021-02-21
5823,Sold,11599876,5976862,"28Ξ ($55,091)","Feb 21, 2021",28,55091,2021-02-21
5823,Sold,11257645,11599876,"17.95Ξ ($32,861)","Feb 14, 2021",17.95,32861,2021-02-14
5823,Sold,10734384,11257645,"9.50Ξ ($4,499)","Nov 18, 2020",9.5,4499,2020-11-18
5826,Sold,10734384,15516100,"13.99Ξ ($25,743)","Feb 18, 2021",13.99,25743,2021-02-18
5827,Sold,3769926,7207726,"18.50Ξ ($33,452)","Feb 14, 2021",18.5,33452,2021-02-14
5827,Sold,14215174,3769926,0.20Ξ ($67),"Oct 13, 2017",0.2,67,2017-10-13
5827,Sold,48543,14215174,0.50Ξ ($95),"Jul 11, 2017",0.5,95,2017-07-11
5828,Sold,55241,10682544,0.10Ξ ($105),"Jan 16, 2018",0.1,105,2018-01-16
5829,Sold,Pranksy,pelvis.e…,"12.99Ξ ($22,503)","Feb 15, 2021",12.99,22503,2021-02-15
5829,Sold,0x4c9692,Pranksy,"10Ξ ($14,325)","Feb 02, 2021",10,14325,2021-02-02
5829,Sold,0xa3cb30,0x4c9692,"6.10Ξ ($4,592)","Dec 30, 2020",6.1,4592,2020-12-30
5830,Sold,10734384,14763803,"6.30Ξ ($8,264)","Jan 31, 2021",6.3,8264,2021-01-31
5831,Sold,6249972,7833096,"25Ξ ($44,585)","Feb 22, 2021",25,44585,2021-02-22
5833,Sold,733437,13053754,1.10Ξ ($152),"Mar 06, 2019",1.1,152,2019-03-06
5834,Sold,55241,snax,0.10Ξ ($115),"Jan 20, 2018",0.1,115,2018-01-20
5837,Sold,0xb60df4,MrTpunks…,"8Ξ ($3,502)","Nov 07, 2020",8,3502,2020-11-07
5837,Sold,niwin,0xb60df4,"6.29Ξ ($2,383)","Oct 16, 2020",6.29,2383,2020-10-16
5837,Sold,0x5b098b,niwin,"5.77Ξ ($2,105)","Sep 28, 2020",5.77,2105,2020-09-28
5840,Sold,0xe754d1,DB,"2.95Ξ ($1,029)","Sep 26, 2020",2.95,1029,2020-09-26
5840,Sold,Pranksy,0xe754d1,1.88Ξ ($690),"Sep 15, 2020",1.88,690,2020-09-15
5840,Sold,juggerna…,alxo,0.25Ξ ($38),"Nov 23, 2019",0.25,38,2019-11-23
5842,Sold,TokenAng…,0x16c5d7,"32Ξ ($48,908)","Feb 23, 2021",32,48908,2021-02-23
5842,Sold,0x00d7c9,TokenAng…,0.25Ξ ($53),"Aug 12, 2019",0.25,53,2019-08-12
5843,Sold,✨🚀🌙.et…,0xf598aa,"16Ξ ($31,767)","Apr 04, 2021",16,31767,2021-04-04
5845,Sold,0x8234be,7823584,0.05Ξ ($15),"Sep 29, 2017",0.05,15,2017-09-29
5846,Sold,cryptosa…,0xbfd569,1.21Ξ ($297),"Jun 11, 2020",1.21,297,2020-06-11
5846,Sold,Shrugs,cryptosa…,1.20Ξ ($240),"May 26, 2020",1.2,240,2020-05-26
5846,Sold,Hemba,Shrugs,0.12Ξ ($55),"Jul 26, 2018",0.12,55,2018-07-26
5847,Sold,7293485,14540205,"23Ξ ($41,190)","Mar 13, 2021",23,41190,2021-03-13
5848,Sold,7293485,15430239,"35Ξ ($62,034)","Feb 22, 2021",35,62034,2021-02-22
5849,Sold,0x1a96af,393680,1.99Ξ ($743),"Sep 14, 2020",1.99,743,2020-09-14
5850,Sold,0x97db27,7078809,"28.99Ξ ($45,509)","Mar 02, 2021",28.99,45509,2021-03-02
5850,Sold,0xf1b658,9952039,"13Ξ ($24,965)","Feb 19, 2021",13,24965,2021-02-19
5850,Sold,0xded2cb,15840856,"10Ξ ($18,160)","Feb 14, 2021",10,18160,2021-02-14
5851,Sold,0xe45df5,Pixls,0.65Ξ ($175),"Jun 16, 2019",0.65,175,2019-06-16
5853,Sold,161055,sov,0.20Ξ ($39),"Jul 30, 2017",0.2,39,2017-07-30
5855,Sold,Goop,0xd9a77b,0.37Ξ ($49),"Dec 16, 2019",0.37,49,2019-12-16
5855,Sold,helpchai…,Goop,0.35Ξ ($53),"Nov 23, 2019",0.35,53,2019-11-23
5855,Sold,juggerna…,helpchai…,0.25Ξ ($45),"Nov 03, 2019",0.25,45,2019-11-03
5860,Sold,Davicio,0xf51d05,"39Ξ ($74,354)","Feb 21, 2021",39,74354,2021-02-21
5860,Sold,GoWest23,Davicio,"9.85Ξ ($3,454)","Sep 26, 2020",9.85,3454,2020-09-26
5860,Sold,TweetyPi…,GoWest23,1.45Ξ ($194),"Jan 04, 2020",1.45,194,2020-01-04
5860,Sold,Pranksy,TweetyPi…,0.75Ξ ($99),"Jan 01, 2020",0.75,99,2020-01-01
5860,Sold,0x00d7c9,Pranksy,0.25Ξ ($45),"Sep 02, 2019",0.25,45,2019-09-02
5870,Sold,0x033ee7,0x3ff68e,"13.84Ξ ($26,385)","Feb 18, 2021",13.84,26385,2021-02-18
5870,Sold,NeonNFT,0x033ee7,2.45Ξ ($848),"Sep 24, 2020",2.45,848,2020-09-24
5870,Sold,Pranksy,NeonNFT,2.19Ξ ($757),"Sep 24, 2020",2.19,757,2020-09-24
5870,Sold,Hemba,Pranksy,1.80Ξ ($613),"Sep 22, 2020",1.8,613,2020-09-22
5871,Sold,Hemba,0x28784d,0.15Ξ ($173),"Jan 20, 2018",0.15,173,2018-01-20
5874,Sold,755965,2340107,"55Ξ ($94,119)","Mar 23, 2021",55,94119,2021-03-23
5875,Sold,0x23b50b,0x13f137,"22.95Ξ ($30,887)","Feb 28, 2021",22.95,30887,2021-02-28
5875,Sold,0x0a4d54,0x48c85c,"19.45Ξ ($38,002)","Feb 21, 2021",19.45,38002,2021-02-21
5875,Sold,0xeb725f,0x0a4d54,"14.79Ξ ($28,588)","Feb 21, 2021",14.79,28588,2021-02-21
5875,Sold,Loopify,0xeb725f,"10.50Ξ ($19,448)","Feb 17, 2021",10.5,19448,2021-02-17
5875,Sold,0xa3cb30,Loopify,"7.80Ξ ($14,355)","Feb 14, 2021",7.8,14355,2021-02-14
5876,Sold,0xddfdcb,0xf72cf7,"23.98Ξ ($36,689)","Mar 04, 2021",23.98,36689,2021-03-04
5876,Sold,0x3e17fa,0xddfdcb,"9Ξ ($15,481)","Feb 15, 2021",9,15481,2021-02-15
5876,Sold,0x8839d1,0x3e17fa,2.80Ξ ($968),"Sep 24, 2020",2.8,968,2020-09-24
5876,Sold,0x67a7ee,0x8839d1,1.50Ξ ($478),"Jul 30, 2020",1.5,478,2020-07-30
5876,Sold,cryptosa…,0x67a7ee,1.26Ξ ($290),"Jun 20, 2020",1.26,290,2020-06-20
5876,Sold,0xa6e2e9,cryptosa…,1Ξ ($203),"May 22, 2020",1,203,2020-05-22
5877,Sold,0x5f5df4,3543730,"27Ξ ($42,858)","Feb 23, 2021",27,42858,2021-02-23
5878,Sold,barthazi…,0x13816f,"4.99Ξ ($1,712)","Oct 02, 2020",4.99,1712,2020-10-02
5878,Sold,Pranksy,barthazi…,1.20Ξ ($403),"Sep 09, 2020",1.2,403,2020-09-09
5878,Sold,0x00d7c9,Pranksy,0.25Ξ ($45),"Sep 02, 2019",0.25,45,2019-09-02
5880,Sold,5966219,45688,0.24Ξ ($58),"Jul 07, 2017",0.24,58,2017-07-07
5880,Sold,5331586,5966219,0.05Ξ ($16),"Jun 28, 2017",0.05,16,2017-06-28
5881,Sold,👨🏻‍🌾.…,wookie.e…,"14Ξ ($29,620)","Apr 05, 2021",14,29620,2021-04-05
5881,Sold,0x5b098b,👨🏻‍🌾.…,"9.80Ξ ($18,036)","Feb 14, 2021",9.8,18036,2021-02-14
5881,Sold,Hemba,0x5b098b,0.17Ξ ($19),"Nov 26, 2018",0.17,19,2018-11-26
5883,Sold,0xe281b9,mbeck.et…,"40Ξ ($71,616)","Mar 17, 2021",40,71616,2021-03-17
5883,Sold,0xe71274,0xe281b9,"24.20Ξ ($37,855)","Mar 04, 2021",24.2,37855,2021-03-04
5883,Sold,0x3713ec,0xe71274,"26Ξ ($52,618)","Feb 20, 2021",26,52618,2021-02-20
5883,Sold,0xf7c889,0x3713ec,"19.50Ξ ($37,637)","Feb 19, 2021",19.5,37637,2021-02-19
5883,Sold,EliteCat…,0xf7c889,"14.50Ξ ($25,322)","Feb 17, 2021",14.5,25322,2021-02-17
5883,Sold,Pranksy,GoWest23,0.65Ξ ($87),"Jan 04, 2020",0.65,87,2020-01-04
5883,Sold,0x00d7c9,Pranksy,0.25Ξ ($45),"Sep 02, 2019",0.25,45,2019-09-02
5886,Sold,0xd3e2e7,0x62bdc6,"17.67Ξ ($36,516)","Apr 08, 2021",17.67,36516,2021-04-08
5886,Sold,0xc480fb,0xd3e2e7,"14.67Ξ ($30,372)","Apr 05, 2021",14.67,30372,2021-04-05
5889,Sold,0x8234be,0x0a4eaf…,0.05Ξ ($15),"Sep 30, 2017",0.05,15,2017-09-30
5890,Sold,0x8234be,8278656,0.25Ξ ($171),"Apr 28, 2018",0.25,171,2018-04-28
5894,Sold,10937065,10380419,"21.94Ξ ($38,642)","Mar 17, 2021",21.94,38642,2021-03-17
5895,Sold,Thing,Dude_Nak…,"4.99Ξ ($1,798)","Sep 27, 2020",4.99,1798,2020-09-27
5895,Sold,Pranksy,Thing,"2.99Ξ ($1,027)","Sep 22, 2020",2.99,1027,2020-09-22
5895,Sold,Dude_Nak…,evkort,"3.95Ξ ($1,512)","Sep 14, 2020",3.95,1512,2020-09-14
5895,Sold,0xf5099e,Dude_Nak…,0.45Ξ ($55),"Dec 17, 2019",0.45,55,2019-12-17
5895,Sold,0x8b27de,0xa0a59c,0.28Ξ ($67),"Jul 07, 2017",0.28,67,2017-07-07
5897,Sold,juggerna…,josie,0.25Ξ ($38),"Nov 23, 2019",0.25,38,2019-11-23
5898,Sold,MrTpunks,0x649b84,"85Ξ ($134,803)","Mar 04, 2021",85,134803,2021-03-04
5898,Sold,shilpixe…,MrTpunks…,4.50Ξ ($842),"Apr 25, 2020",4.5,842,2020-04-25
5901,Sold,dereklau…,0x024bcb,"28.90Ξ ($57,846)","Feb 20, 2021",28.9,57846,2021-02-20
5901,Sold,0xa3cb30,dereklau…,"16Ξ ($28,578)","Feb 15, 2021",16,28578,2021-02-15
5903,Sold,10734384,7293485,"7.20Ξ ($13,084)","Feb 13, 2021",7.2,13084,2021-02-13
5904,Sold,TJ2010,tonyherr…,"7.77Ξ ($9,754)","Jan 24, 2021",7.77,9754,2021-01-24
5904,Sold,ddaavvee,TJ2010,"6Ξ ($2,191)","Sep 28, 2020",6,2191,2020-09-28
5905,Sold,straybit…,0x00b278,"10Ξ ($2,690)","Jul 04, 2017",10,2690,2017-07-04
5909,Sold,0x19ac60,0xd3e2e7,"4.60Ξ ($5,829)","Jan 09, 2021",4.6,5829,2021-01-09
5910,Sold,0xa80be8…,0x88d357,"23.35Ξ ($42,162)","Mar 21, 2021",23.35,42162,2021-03-21
5910,Sold,Cyborg,0xa80be8…,0.25Ξ ($29),"Dec 20, 2018",0.25,29,2018-12-20
5911,Sold,Carlini8,ddaavvee,2.50Ξ ($873),"Sep 25, 2020",2.5,873,2020-09-25
5911,Sold,therealB…,Carlini8,1.50Ξ ($564),"Sep 14, 2020",1.5,564,2020-09-14
5911,Sold,0x48db19,therealB…,0.99Ξ ($379),"Aug 25, 2020",0.99,379,2020-08-25
5912,Sold,15691096,13745832,"18Ξ ($37,271)","Apr 08, 2021",18,37271,2021-04-08
5912,Sold,3351474,15691096,0.29Ξ ($285),"Jan 11, 2021",0.29,285,2021-01-11
5912,Sold,5566897,3351474,"5Ξ ($4,908)","Jan 11, 2021",5,4908,2021-01-11
5912,Sold,55241,6634123,0.45Ξ ($110),"May 22, 2019",0.45,110,2019-05-22
5913,Sold,Kittypad,0xb6681a,"20Ξ ($36,336)","Feb 13, 2021",20,36336,2021-02-13
5913,Sold,Pranksy,0x5b331e,"9.99Ξ ($12,117)","Jan 07, 2021",9.99,12117,2021-01-07
5913,Sold,curating…,2pac,"9Ξ ($5,265)","Dec 14, 2020",9,5265,2020-12-14
5915,Sold,Pranksy,jmg,"31.99Ξ ($60,096)","Mar 15, 2021",31.99,60096,2021-03-15
5915,Sold,0x565496,Pranksy,"26Ξ ($47,014)","Mar 12, 2021",26,47014,2021-03-12
5915,Sold,curating…,0x565496,"9.50Ξ ($16,645)","Feb 11, 2021",9.5,16645,2021-02-11
5916,Sold,14966261,2076582,1.10Ξ ($280),"Feb 16, 2020",1.1,280,2020-02-16
5916,Sold,5966219,14966261,0.30Ξ ($98),"Jun 23, 2017",0.3,98,2017-06-23
5917,Sold,0x0553de,Adidust,1.62Ξ ($323),"May 26, 2020",1.62,323,2020-05-26
5917,Sold,Hemba,0x0553de,1.35Ξ ($276),"May 24, 2020",1.35,276,2020-05-24
5919,Sold,Hex,0x4dfac3,"22.22Ξ ($36,958)","Mar 23, 2021",22.22,36958,2021-03-23
5919,Sold,EliteCat…,Hex,"10.25Ξ ($18,377)","Feb 15, 2021",10.25,18377,2021-02-15
5919,Sold,0xe45df5,GoWest23,0.90Ξ ($145),"Jan 16, 2020",0.9,145,2020-01-16
5920,Sold,Hemba,7478,0.35Ξ ($41),"Jan 23, 2019",0.35,41,2019-01-23
5921,Sold,5966219,15583681,0.36Ξ ($110),"Jun 24, 2017",0.36,110,2017-06-24
5922,Sold,8533182,Kenney,0.12Ξ ($84),"May 02, 2018",0.12,84,2018-05-02
5924,Sold,monopoly…,0xaaaba0,"75Ξ ($135,547)","Mar 12, 2021",75,135547,2021-03-12
5924,Sold,0xd93033,monopoly…,"8Ξ ($14,014)","Feb 15, 2021",8,14014,2021-02-15
5926,Sold,pleyuh.e…,0xef784c,"37Ξ ($67,953)","Mar 09, 2021",37,67953,2021-03-09
5926,Sold,0x13816f,pleyuh.e…,"14.75Ξ ($25,285)","Feb 08, 2021",14.75,25285,2021-02-08
5926,Sold,0xa3cb30,0x13816f,"6.40Ξ ($2,249)","Oct 06, 2020",6.4,2249,2020-10-06
5930,Sold,Pranksy,TokenAng…,0.50Ξ ($104),"Sep 17, 2019",0.5,104,2019-09-17
5930,Sold,0x00d7c9,Pranksy,0.25Ξ ($45),"Sep 02, 2019",0.25,45,2019-09-02
5931,Sold,Pranksy,thegoodn…,0.35Ξ ($66),"Nov 10, 2019",0.35,66,2019-11-10
5931,Sold,0x00d7c9,Pranksy,0.25Ξ ($45),"Sep 02, 2019",0.25,45,2019-09-02
5932,Sold,10734384,11263027,"3.50Ξ ($2,317)","Dec 17, 2020",3.5,2317,2020-12-17
5933,Sold,0x0a4eaf…,0x00b278,0.27Ξ ($65),"Jul 07, 2017",0.27,65,2017-07-07
5933,Sold,0x0b30fd,0x0a4eaf…,0.25Ξ ($66),"Jul 06, 2017",0.25,66,2017-07-06
5935,Sold,0xe2c10e,0x71a31c,"14.50Ξ ($28,929)","Apr 02, 2021",14.5,28929,2021-04-02
5935,Sold,0x033ee7,0xe2c10e,"13.58Ξ ($26,072)","Feb 19, 2021",13.58,26072,2021-02-19
5935,Sold,0x0713a6,0x033ee7,"4.10Ξ ($1,419)","Sep 24, 2020",4.1,1419,2020-09-24
5935,Sold,ross_VRO…,0x0713a6,0.65Ξ ($129),"May 14, 2020",0.65,129,2020-05-14
5935,Sold,Goop,ross_VRO…,0.54Ξ ($77),"Jan 07, 2020",0.54,77,2020-01-07
5935,Sold,Pranksy,Goop,0.50Ξ ($72),"Jan 07, 2020",0.5,72,2020-01-07
5935,Sold,0x00d7c9,Pranksy,0.25Ξ ($45),"Sep 02, 2019",0.25,45,2019-09-02
5936,Sold,shilpixe…,0x4e9481,"16Ξ ($31,873)","Apr 02, 2021",16,31873,2021-04-02
5937,Sold,55241,2652237,0.12Ξ ($137),"Jan 11, 2018",0.12,137,2018-01-11
5938,Sold,0x0553de,ObiWanKe…,0.98Ξ ($380),"Aug 07, 2020",0.98,380,2020-08-07
5938,Sold,0x3a8441,0x0553de,1.49Ξ ($297),"May 26, 2020",1.49,297,2020-05-26
5939,Sold,Korniej,MT1000,"3.90Ξ ($2,249)","Nov 30, 2020",3.9,2249,2020-11-30
5939,Sold,0xa1179f,Korniej,"5Ξ ($1,775)","Sep 25, 2020",5,1775,2020-09-25
5939,Sold,0x87e225,0xa1179f,0.50Ξ ($83),"Apr 16, 2019",0.5,83,2019-04-16
5939,Sold,jmg,0x87e225,0.35Ξ ($53),"Jan 08, 2019",0.35,53,2019-01-08
5939,Sold,0x00d7c9,jmg,0.10Ξ ($30),"Oct 27, 2017",0.1,30,2017-10-27
5941,Sold,0x00d7c9,GtC,0.25Ξ ($45),"Sep 08, 2019",0.25,45,2019-09-08
5944,Sold,Snowfro,DANNY,"35Ξ ($12,534)","Sep 06, 2020",35,12534,2020-09-06
5946,Sold,0x00d7c9,CyrusOld,0.05Ξ ($29),"Jun 01, 2018",0.05,29,2018-06-01
5947,Sold,0xe4c479,0x087173,"3.80Ξ ($1,310)","Sep 25, 2020",3.8,1310,2020-09-25
5947,Sold,0x067034,0xe4c479,"3.50Ξ ($1,332)","Sep 20, 2020",3.5,1332,2020-09-20
5947,Sold,Carlini8,0x067034,"3Ξ ($1,115)","Sep 15, 2020",3,1115,2020-09-15
5947,Sold,Shrugs,Carlini8,2.10Ξ ($790),"Sep 14, 2020",2.1,790,2020-09-14
5947,Sold,Dude_Nak…,Shrugs,0.19Ξ ($88),"Jul 26, 2018",0.19,88,2018-07-26
5947,Sold,0x8234be,Dude_Nak…,0.16Ξ ($87),"Mar 23, 2018",0.16,87,2018-03-23
5949,Sold,jmg,TokenAng…,5.25Ξ ($758),"Jan 10, 2020",5.25,758,2020-01-10
5949,Sold,Slacktid…,jmg,1.65Ξ ($308),"Nov 04, 2019",1.65,308,2019-11-04
5949,Sold,jmg,0x976b59,2.79Ξ ($629),"Oct 02, 2018",2.79,629,2018-10-02
5949,Sold,0xd8e806,jmg,0.80Ξ ($788),"Jan 23, 2018",0.8,788,2018-01-23
5949,Sold,0xa9bfa9,0xd8e806,0.90Ξ ($202),"Aug 03, 2017",0.9,202,2017-08-03
5950,Sold,0xf5099e,Snowfro,0.75Ξ ($120),"Feb 23, 2019",0.75,120,2019-02-23
5950,Sold,0xa9bfa9,0xa0a59c,0.30Ξ ($67),"Aug 03, 2017",0.3,67,2017-08-03
5953,Sold,0x8ba3e2,0x4960c4…,0.10Ξ ($34),"Oct 15, 2017",0.1,34,2017-10-15
5953,Sold,0x8234be,0x8ba3e2,0.06Ξ ($18),"Sep 30, 2017",0.06,18,2017-09-30
5958,Sold,0xd4fa6e,8278656,1.50Ξ ($253),"Apr 14, 2019",1.5,253,2019-04-14
5960,Sold,55241,PB,0.45Ξ ($121),"May 26, 2019",0.45,121,2019-05-26
5961,Sold,0x13816f,0xddfdcb,"8.45Ξ ($15,283)","Feb 14, 2021",8.45,15283,2021-02-14
5961,Sold,NeonNFT,0x13816f,"4.75Ξ ($1,627)","Oct 02, 2020",4.75,1627,2020-10-02
5961,Sold,Dude_Nak…,NeonNFT,"5.75Ξ ($2,045)","Sep 30, 2020",5.75,2045,2020-09-30
5961,Sold,0x00d7c9,Dude_Nak…,0.30Ξ ($66),"Jul 31, 2019",0.3,66,2019-07-31
5962,Sold,0x20af8c,0x50664e,"14.65Ξ ($28,685)","Feb 21, 2021",14.65,28685,2021-02-21
5962,Sold,0xb6be4d,0x20af8c,"13.30Ξ ($25,499)","Feb 20, 2021",13.3,25499,2021-02-20
5962,Sold,0x0d7794,0xb6be4d,"12.80Ξ ($24,334)","Feb 18, 2021",12.8,24334,2021-02-18
5962,Sold,0x7c18fd,0x568cf5,"5.70Ξ ($2,016)","Sep 29, 2020",5.7,2016,2020-09-29
5962,Sold,0xe754d1,0x7c18fd,"5.49Ξ ($1,947)","Sep 29, 2020",5.49,1947,2020-09-29
5962,Sold,Pranksy,0xe754d1,"3.20Ξ ($1,135)","Sep 27, 2020",3.2,1135,2020-09-27
5962,Sold,Hemba,Pranksy,2.30Ξ ($796),"Sep 24, 2020",2.3,796,2020-09-24
5965,Sold,0xb73d34,0x4cf23b,"23.40Ξ ($41,948)","Mar 16, 2021",23.4,41948,2021-03-16
5965,Sold,0x437ec7,0xb73d34,"18Ξ ($32,194)","Mar 08, 2021",18,32194,2021-03-08
5965,Sold,cdoch,0x437ec7,"7.99Ξ ($14,326)","Feb 16, 2021",7.99,14326,2021-02-16
5965,Sold,0x257e2b,cdoch,"4.99Ξ ($1,815)","Oct 09, 2020",4.99,1815,2020-10-09
5965,Sold,444.eth,0x257e2b,"4.40Ξ ($1,501)","Oct 08, 2020",4.4,1501,2020-10-08
5965,Sold,0x95c550,444.eth,"4.95Ξ ($1,748)","Oct 02, 2020",4.95,1748,2020-10-02
5965,Sold,0xe754d1,0x95c550,"5.75Ξ ($2,034)","Sep 29, 2020",5.75,2034,2020-09-29
5965,Sold,Pranksy,0xe754d1,"3.20Ξ ($1,135)","Sep 27, 2020",3.2,1135,2020-09-27
5965,Sold,0x11c9a7,Pranksy,2.25Ξ ($779),"Sep 24, 2020",2.25,779,2020-09-24
5965,Sold,Carlini8,0x11c9a7,2Ξ ($642),"Sep 23, 2020",2,642,2020-09-23
5965,Sold,Hemba,Carlini8,1.45Ξ ($545),"Sep 14, 2020",1.45,545,2020-09-14
5968,Sold,Cyborg,0x9e1e40,0.12Ξ ($104),"Mar 04, 2018",0.12,104,2018-03-04
5969,Sold,Hemba,krybhara…,1Ξ ($398),"Aug 07, 2020",1,398,2020-08-07
5971,Sold,jmg,Snowfro,0.45Ξ ($72),"Feb 23, 2019",0.45,72,2019-02-23
5971,Sold,0x00d7c9,jmg,0.10Ξ ($48),"Nov 27, 2017",0.1,48,2017-11-27
5973,Sold,0x701f37,0xf2c16a,"23.50Ξ ($44,188)","Mar 13, 2021",23.5,44188,2021-03-13
5973,Sold,0xb73b18,charley,"6.75Ξ ($12,081)","Feb 11, 2021",6.75,12081,2021-02-11
5973,Sold,0x6f4a2d,0xb73b18,"5.94Ξ ($10,306)","Feb 09, 2021",5.94,10306,2021-02-09
5974,Sold,Carlini8,TokenAng…,2Ξ ($454),"Jul 03, 2020",2,454,2020-07-03
5974,Sold,0xf0f068…,Carlini8,2.40Ξ ($492),"May 22, 2020",2.4,492,2020-05-22
5974,Sold,0x670d75,0xf0f068…,2Ξ ($328),"Jan 16, 2020",2,328,2020-01-16
5983,Sold,6416359,3819824,1.31Ξ ($272),"May 23, 2020",1.31,272,2020-05-23
5983,Sold,55241,5774169,0.30Ξ ($69),"Jul 20, 2019",0.3,69,2019-07-20
5985,Sold,0xc480fb,8265189,"7.80Ξ ($13,357)","Feb 06, 2021",7.8,13357,2021-02-06
5988,Sold,Cyborg,0x6611fe,0.35Ξ ($86),"Jul 08, 2017",0.35,86,2017-07-08
5990,Sold,0xef768e,TokenAng…,"32Ξ ($43,956)","Feb 28, 2021",32,43956,2021-02-28
5991,Sold,3699717,2698614,"3.95Ξ ($4,863)","Jan 18, 2021",3.95,4863,2021-01-18
5992,Sold,Pranksy,LeandroC…,0.60Ξ ($63),"Mar 16, 2020",0.6,63,2020-03-16
5992,Sold,0x00d7c9,Pranksy,0.40Ξ ($118),"Jun 21, 2019",0.4,118,2019-06-21
5996,Sold,0x023ef7,0x4a5877,"24.99Ξ ($45,692)","Mar 20, 2021",24.99,45692,2021-03-20
5996,Sold,0xfd8042,0xeb725f,"11.90Ξ ($22,042)","Feb 17, 2021",11.9,22042,2021-02-17
5996,Sold,0xc51fa4,0xfd8042,"10.30Ξ ($18,629)","Feb 17, 2021",10.3,18629,2021-02-17
5996,Sold,0x387405,0xc51fa4,"5.15Ξ ($8,764)","Feb 06, 2021",5.15,8764,2021-02-06
5999,Sold,0xf4239e,gaus,"3.50Ξ ($1,252)","Sep 28, 2020",3.5,1252,2020-09-28
5999,Sold,Hemba,0xf4239e,2.30Ξ ($796),"Sep 24, 2020",2.3,796,2020-09-24
6000,Sold,0xca8fe4,8275292,"19Ξ ($33,581)","Mar 29, 2021",19,33581,2021-03-29
6002,Sold,6471110,13917287,"39.99Ξ ($68,165)","Mar 23, 2021",39.99,68165,2021-03-23
6002,Sold,13275108,6471110,"37Ξ ($66,980)","Mar 21, 2021",37,66980,2021-03-21
6007,Sold,natealex,0xc69ae4,1.35Ξ ($269),"May 26, 2020",1.35,269,2020-05-26
6007,Sold,Pranksy,natealex,0.65Ξ ($105),"Jan 23, 2020",0.65,105,2020-01-23
6007,Sold,0x00d7c9,Pranksy,0.40Ξ ($118),"Jun 21, 2019",0.4,118,2019-06-21
6008,Sold,0x5aaeb9,0xec4b06,"3.10Ξ ($1,091)","Sep 27, 2020",3.1,1091,2020-09-27
6008,Sold,ross_VRO…,0x5aaeb9,"2.95Ξ ($1,047)","Sep 26, 2020",2.95,1047,2020-09-26
6008,Sold,Nissla,ross_VRO…,"2.90Ξ ($1,018)","Sep 24, 2020",2.9,1018,2020-09-24
6008,Sold,Ranger,Nissla,2.50Ξ ($865),"Sep 24, 2020",2.5,865,2020-09-24
6008,Sold,0x00d7c9,Pranksy,0.40Ξ ($118),"Jun 21, 2019",0.4,118,2019-06-21
6009,Sold,0x00d7c9,GtC,0.25Ξ ($45),"Sep 03, 2019",0.25,45,2019-09-03
6010,Sold,0x73e788,0xcc52d4,"29.90Ξ ($44,911)","Feb 27, 2021",29.9,44911,2021-02-27
6010,Sold,Deeze,0x73e788,"13.49Ξ ($23,558)","Feb 17, 2021",13.49,23558,2021-02-17
6010,Sold,0x2fdacd,Deeze,"7.10Ξ ($7,829)","Jan 13, 2021",7.1,7829,2021-01-13
6011,Sold,784659,sov,0.33Ξ ($109),"Aug 25, 2017",0.33,109,2017-08-25
6011,Sold,55241,0x0bf913,0.22Ξ ($44),"Jul 10, 2017",0.22,44,2017-07-10
6012,Sold,0x5e43e1,5249147,"32Ξ ($66,925)","Apr 09, 2021",32,66925,2021-04-09
6012,Sold,0x596572,6177761,"19Ξ ($36,222)","Feb 18, 2021",19,36222,2021-02-18
6012,Sold,0xc0c97e,5858674,"10.50Ξ ($18,954)","Feb 13, 2021",10.5,18954,2021-02-13
6012,Sold,0x2fdacd,12634494,"10Ξ ($11,027)","Jan 13, 2021",10,11027,2021-01-13
6014,Sold,0x0b88fd,11268359,"40Ξ ($84,858)","Apr 06, 2021",40,84858,2021-04-06
6015,Sold,0x58164b,Kenney,0.15Ξ ($113),"May 07, 2018",0.15,113,2018-05-07
6016,Sold,EliteCat…,0x6f1174,"30Ξ ($46,942)","Feb 23, 2021",30,46942,2021-02-23
6016,Sold,Pranksy,GoWest23,0.60Ξ ($80),"Jan 04, 2020",0.6,80,2020-01-04
6016,Sold,0x00d7c9,Pranksy,0.40Ξ ($118),"Jun 21, 2019",0.4,118,2019-06-21
6020,Sold,8533182,5843537,0.08Ξ ($55),"Dec 15, 2017",0.08,55,2017-12-15
6021,Sold,shilpixe…,xaix.eth,"17Ξ ($35,055)","Apr 05, 2021",17,35055,2021-04-05
6022,Sold,EliteCat…,0xbb5eb7,"20Ξ ($30,374)","Mar 05, 2021",20,30374,2021-03-05
6022,Sold,0xe45df5,GoWest23,0.45Ξ ($78),"May 06, 2019",0.45,78,2019-05-06
6023,Sold,14966261,5639058,0.50Ξ ($103),"Jul 10, 2017",0.5,103,2017-07-10
6024,Sold,satman,Official…,2Ξ ($408),"May 25, 2020",2,408,2020-05-25
6024,Sold,Pranksy,satman,0.55Ξ ($107),"Mar 09, 2020",0.55,107,2020-03-09
6024,Sold,0x00d7c9,Pranksy,0.40Ξ ($118),"Jun 21, 2019",0.4,118,2019-06-21
6026,Sold,1742511,393680,1.99Ξ ($743),"Sep 14, 2020",1.99,743,2020-09-14
6026,Sold,6827056,14966261,0.39Ξ ($104),"Jul 06, 2017",0.39,104,2017-07-06
6027,Sold,14966261,16483839,0.90Ξ ($266),"Sep 02, 2018",0.9,266,2018-09-02
6028,Sold,13275108,0xaae8c5,"21Ξ ($28,565)","Feb 28, 2021",21,28565,2021-02-28
6029,Sold,6827056,7823584,0.35Ξ ($94),"Jul 04, 2017",0.35,94,2017-07-04
6030,Sold,MrTpunks…,WuTangCl…,"35Ξ ($68,662)","Feb 21, 2021",35,68662,2021-02-21
6030,Sold,0x0601d0,MrTpunks,"12.50Ξ ($4,430)","Sep 29, 2020",12.5,4430,2020-09-29
6030,Sold,0x00bd3a,0xff8414,0.59Ξ ($122),"Jul 10, 2017",0.59,122,2017-07-10
6030,Sold,0x682c30,0x00bd3a,0.35Ξ ($99),"Jul 02, 2017",0.35,99,2017-07-02
6031,Sold,Hemba,stazie,0.42Ξ ($57),"Mar 21, 2019",0.42,57,2019-03-21
6032,Sold,0xc272ed,Zonked,"15Ξ ($29,045)","Feb 18, 2021",15,29045,2021-02-18
6034,Sold,16105941,13621708,"50.34Ξ ($81,034)","Mar 03, 2021",50.34,81034,2021-03-03
6034,Sold,12196282,1856910,"15Ξ ($26,097)","Feb 17, 2021",15,26097,2021-02-17
6035,Sold,0x9c6b51,0xea1218,"21.10Ξ ($38,134)","Mar 12, 2021",21.1,38134,2021-03-12
6035,Sold,✨🚀🌙.et…,0x9c6b51,"17.04Ξ ($31,050)","Mar 09, 2021",17.04,31050,2021-03-09
6036,Sold,0xe96c3e,0x491be7,"34Ξ ($66,430)","Feb 21, 2021",34,66430,2021-02-21
6036,Sold,0x87e225,el,0.55Ξ ($79),"Dec 11, 2019",0.55,79,2019-12-11
6036,Sold,tarballq…,0x87e225,0.49Ξ ($92),"Nov 13, 2019",0.49,92,2019-11-13
6036,Sold,0xe45df5,tarballq…,0.70Ξ ($97),"Mar 06, 2019",0.7,97,2019-03-06
6037,Sold,13275108,14548427,"29.50Ξ ($53,621)","Mar 18, 2021",29.5,53621,2021-03-18
6039,Sold,Cyborg,0x00b278,0.24Ξ ($65),"Jul 03, 2017",0.24,65,2017-07-03
6046,Sold,6689278,richerd.…,"45Ξ ($83,209)","Mar 31, 2021",45,83209,2021-03-31
6047,Sold,0x65ba4f,0xff70ec,"27Ξ ($45,477)","Mar 22, 2021",27,45477,2021-03-22
6047,Sold,MrTpunks,0x65ba4f,"22Ξ ($42,525)","Feb 21, 2021",22,42525,2021-02-21
6047,Sold,0xf0f068…,ManOverb…,3Ξ ($702),"Jun 12, 2020",3,702,2020-06-12
6047,Sold,Pranksy,0xf0f068…,1.25Ξ ($160),"Dec 24, 2019",1.25,160,2019-12-24
6047,Sold,0x00d7c9,Pranksy,0.40Ξ ($118),"Jun 21, 2019",0.4,118,2019-06-21
6050,Sold,14966261,Kataster…,0.50Ξ ($67),"Jan 03, 2020",0.5,67,2020-01-03
6052,Sold,0xed862d,0x6130d3,"14.25Ξ ($27,232)","Feb 19, 2021",14.25,27232,2021-02-19
6052,Sold,aviexkak…,0xed862d,"7.50Ξ ($13,693)","Feb 14, 2021",7.5,13693,2021-02-14
6052,Sold,0x15992d,gaus,2.60Ξ ($907),"Sep 25, 2020",2.6,907,2020-09-25
6052,Sold,0x3a4930,0x15992d,2Ξ ($768),"Sep 18, 2020",2,768,2020-09-18
6052,Sold,0x1a96af,0x3a4930,1.12Ξ ($229),"May 24, 2020",1.12,229,2020-05-24
6055,Sold,0x88c500,0xef784c,"42Ξ ($75,662)","Mar 11, 2021",42,75662,2021-03-11
6058,Sold,Korniej,0x0ebd1a,"9Ξ ($15,907)","Feb 17, 2021",9,15907,2021-02-17
6058,Sold,Carlini8,Korniej,2.30Ξ ($786),"Sep 23, 2020",2.3,786,2020-09-23
6058,Sold,Myph-Spa…,Carlini8,1.55Ξ ($584),"Sep 14, 2020",1.55,584,2020-09-14
6058,Sold,Loopify,Myph-Spa…,1.30Ξ ($480),"Sep 11, 2020",1.3,480,2020-09-11
6058,Sold,Pranksy,Loopify,1.25Ξ ($459),"Sep 11, 2020",1.25,459,2020-09-11
6058,Sold,cryptosa…,Pranksy,1.24Ξ ($452),"Sep 11, 2020",1.24,452,2020-09-11
6058,Sold,Hemba,cryptosa…,1.45Ξ ($299),"May 27, 2020",1.45,299,2020-05-27
6059,Sold,0x0d7794,0x4a5877,"21Ξ ($44,374)","Apr 03, 2021",21,44374,2021-04-03
6059,Sold,0x0713a6,0x380336,"5Ξ ($3,114)","Dec 22, 2020",5,3114,2020-12-22
6059,Sold,Dude_Nak…,0x0713a6,"3.75Ξ ($1,298)","Sep 24, 2020",3.75,1298,2020-09-24
6059,Sold,0x231707,Dude_Nak…,1.25Ξ ($260),"May 23, 2020",1.25,260,2020-05-23
6061,Sold,12878075,6959471,"36.50Ξ ($64,078)","Mar 13, 2021",36.5,64078,2021-03-13
6063,Sold,55241,7435267,0.05Ξ ($29),"May 31, 2018",0.05,29,2018-05-31
6067,Sold,9119710,7823584,0.28Ξ ($90),"Aug 21, 2017",0.28,90,2017-08-21
6068,Sold,0xbull,Hans,1Ξ ($204),"May 22, 2020",1,204,2020-05-22
6068,Sold,Pranksy,0xbull,0.30Ξ ($52),"Oct 18, 2019",0.3,52,2019-10-18
6068,Sold,ark1,Pranksy,0.30Ξ ($63),"Jul 29, 2019",0.3,63,2019-07-29
6069,Sold,0x13816f,0x2ba7f9,"8.55Ξ ($14,875)","Feb 17, 2021",8.55,14875,2021-02-17
6069,Sold,0x3ba9cd,0x13816f,"3.15Ξ ($1,114)","Sep 27, 2020",3.15,1114,2020-09-27
6069,Sold,Carlini8,0x3ba9cd,1.99Ξ ($676),"Sep 23, 2020",1.99,676,2020-09-23
6069,Sold,Hemba,Carlini8,1.40Ξ ($526),"Sep 14, 2020",1.4,526,2020-09-14
6070,Sold,Carlini8,Nissla,2.49Ξ ($874),"Sep 24, 2020",2.49,874,2020-09-24
6070,Sold,VonMises,Carlini8,1.60Ξ ($602),"Sep 14, 2020",1.6,602,2020-09-14
6070,Sold,Hemba,VonMises,1Ξ ($190),"May 13, 2020",1,190,2020-05-13
6073,Sold,👱‍♀.eth,beautifu…,"55Ξ ($113,513)","Apr 08, 2021",55,113513,2021-04-08
6073,Sold,0x0b88fd,👱‍♀.eth,"44.75Ξ ($92,499)","Apr 08, 2021",44.75,92499,2021-04-08
6077,Sold,0xc9ab58,0x_NFT,"5.99Ξ ($2,173)","Sep 28, 2020",5.99,2173,2020-09-28
6077,Sold,Pranksy,0xc9ab58,1.20Ξ ($445),"Sep 10, 2020",1.2,445,2020-09-10
6077,Sold,0x00d7c9,Pranksy,0.40Ξ ($118),"Jun 21, 2019",0.4,118,2019-06-21
6079,Sold,scalynel…,jessieje…,"3.60Ξ ($2,141)","Dec 07, 2020",3.6,2141,2020-12-07
6079,Sold,Pranksy,scalynel…,1Ξ ($135),"Jan 05, 2020",1,135,2020-01-05
6079,Sold,0x00d7c9,Pranksy,0.40Ξ ($118),"Jun 21, 2019",0.4,118,2019-06-21
6080,Sold,755965,tchen.et…,"37.31Ξ ($66,339)","Mar 21, 2021",37.31,66339,2021-03-21
6081,Sold,VonMises,0x9a42d7,"19Ξ ($23,927)","Jan 23, 2021",19,23927,2021-01-23
6081,Sold,0x6611fe,VonMises,3.25Ξ ($628),"Apr 27, 2020",3.25,628,2020-04-27
6081,Sold,0x22ff03,0x6611fe,0.61Ξ ($116),"Jul 11, 2017",0.61,116,2017-07-11
6086,Sold,0xdae48d,Korniej,"6Ξ ($8,114)","Jan 31, 2021",6,8114,2021-01-31
6088,Sold,0x4e2a48,2089018,"20.98Ξ ($44,997)","Apr 11, 2021",20.98,44997,2021-04-11
6088,Sold,0x62bdc6,5122632,"19Ξ ($39,477)","Apr 08, 2021",19,39477,2021-04-08
6088,Sold,0xca8fe4,6471110,"16.99Ξ ($35,119)","Apr 08, 2021",16.99,35119,2021-04-08
6089,Sold,straybit…,0x6611fe,"10Ξ ($2,610)","Jul 01, 2017",10,2610,2017-07-01
6090,Sold,0xc3baaa,0x6c22a9,"4.65Ξ ($5,509)","Jan 06, 2021",4.65,5509,2021-01-06
6090,Sold,NeonNFT,0xd27aa6,"4.50Ξ ($1,859)","Oct 25, 2020",4.5,1859,2020-10-25
6090,Sold,Hemba,NeonNFT,"3Ξ ($1,051)","Sep 25, 2020",3,1051,2020-09-25
6091,Sold,jmg,VonMises,"12.39Ξ ($4,795)","Sep 13, 2020",12.39,4795,2020-09-13
6091,Sold,0x00d7c9,0x00bd3a,0.55Ξ ($164),"Aug 20, 2017",0.55,164,2017-08-20
6092,Sold,6471110,11643633,"18.99Ξ ($32,429)","Mar 27, 2021",18.99,32429,2021-03-27
6092,Sold,13275108,6471110,"18.50Ξ ($31,162)","Mar 26, 2021",18.5,31162,2021-03-26
6094,Sold,0x48af2b,0x8f6b1e,"12Ξ ($21,706)","Feb 14, 2021",12,21706,2021-02-14
6094,Sold,Novo311,0x48af2b,"6.98Ξ ($9,228)","Jan 24, 2021",6.98,9228,2021-01-24
6094,Sold,2pac,Novo311,"5.31Ξ ($3,424)","Dec 27, 2020",5.31,3424,2020-12-27
6094,Sold,alxx,2pac,"5.30Ξ ($3,372)","Dec 18, 2020",5.3,3372,2020-12-18
6094,Sold,0x5aaeb9,alxx,"5.50Ξ ($1,968)","Sep 28, 2020",5.5,1968,2020-09-28
6094,Sold,Carlini8,0x5aaeb9,"5Ξ ($1,768)","Sep 26, 2020",5,1768,2020-09-26
6094,Sold,0x61e7e7,Carlini8,"3.95Ξ ($1,391)","Sep 26, 2020",3.95,1391,2020-09-26
6094,Sold,Pranksy,0x581b59,0.75Ξ ($232),"Jun 22, 2019",0.75,232,2019-06-22
6094,Sold,0x00d7c9,Pranksy,0.40Ξ ($118),"Jun 21, 2019",0.4,118,2019-06-21
6095,Sold,0x8234be,0x4960c4…,0.09Ξ ($36),"Apr 09, 2018",0.09,36,2018-04-09
6097,Sold,0xca8fe4,5786847,"21Ξ ($35,249)","Mar 27, 2021",21,35249,2021-03-27
6098,Sold,4656795,233759,0.30Ξ ($227),"Jan 01, 2018",0.3,227,2018-01-01
6103,Sold,14966261,45688,0.30Ξ ($83),"Jul 03, 2017",0.3,83,2017-07-03
6105,Sold,2293507,14215174,0.15Ξ ($46),"Aug 11, 2017",0.15,46,2017-08-11
6106,Sold,16571553,1723665,"52.99Ξ ($99,085)","Mar 15, 2021",52.99,99085,2021-03-15
6108,Sold,11976269,16033653,0.09Ξ ($42),"Dec 03, 2017",0.09,42,2017-12-03
6110,Sold,12743405,7293485,"23Ξ ($34,333)","Feb 26, 2021",23,34333,2021-02-26
6112,Sold,0x023ef7,0x50664e,"26Ξ ($41,836)","Feb 23, 2021",26,41836,2021-02-23
6112,Sold,0xaae8c5,0x023ef7,"22.90Ξ ($40,840)","Feb 22, 2021",22.9,40840,2021-02-22
6112,Sold,Synpat,0x13816f,"4.99Ξ ($1,737)","Oct 04, 2020",4.99,1737,2020-10-04
6112,Sold,Pranksy,Synpat,"4.60Ξ ($1,672)","Sep 28, 2020",4.6,1672,2020-09-28
6112,Sold,zonted,Pranksy,"3.95Ξ ($1,413)","Sep 28, 2020",3.95,1413,2020-09-28
6112,Sold,0x5aaeb9,zonted,"2.90Ξ ($1,001)","Sep 25, 2020",2.9,1001,2020-09-25
6112,Sold,0x5e7ee9,0x5aaeb9,2.70Ξ ($948),"Sep 24, 2020",2.7,948,2020-09-24
6112,Sold,Hemba,0x5e7ee9,2.30Ξ ($796),"Sep 24, 2020",2.3,796,2020-09-24
6114,Sold,7293485,13142280,"27Ξ ($43,947)","Feb 24, 2021",27,43947,2021-02-24
6115,Sold,0x97db27,0x379133,"19.99Ξ ($40,876)","Apr 08, 2021",19.99,40876,2021-04-08
6115,Sold,0xf1b658,0x97db27,"13.50Ξ ($25,925)","Feb 19, 2021",13.5,25925,2021-02-19
6115,Sold,Pranksy,0xf1b658,"12.99Ξ ($23,439)","Feb 14, 2021",12.99,23439,2021-02-14
6115,Sold,0xca8fe4,Pranksy,"10.50Ξ ($15,041)","Feb 02, 2021",10.5,15041,2021-02-02
6117,Sold,✨🚀🌙.et…,0xf12d70,"15Ξ ($29,216)","Feb 19, 2021",15,29216,2021-02-19
6118,Sold,zaphod,0x748065,"16Ξ ($31,146)","Feb 21, 2021",16,31146,2021-02-21
6119,Sold,11557757,11940464,"6.50Ξ ($8,193)","Jan 27, 2021",6.5,8193,2021-01-27
6120,Sold,0x8234be,7435267,0.05Ξ ($15),"Sep 30, 2017",0.05,15,2017-09-30
6122,Sold,natealex,0x98c488,1.39Ξ ($287),"May 27, 2020",1.39,287,2020-05-27
6122,Sold,Tschuuul…,natealex,0.63Ξ ($126),"May 14, 2020",0.63,126,2020-05-14
6122,Sold,Pranksy,Tschuuul…,0.60Ξ ($115),"Feb 02, 2020",0.6,115,2020-02-02
6122,Sold,Pranksy,natealex,0.65Ξ ($105),"Jan 23, 2020",0.65,105,2020-01-23
6122,Sold,0x00d7c9,Pranksy,0.40Ξ ($118),"Jun 21, 2019",0.4,118,2019-06-21
6123,Sold,8533182,2652237,0.10Ξ ($139),"Jan 13, 2018",0.1,139,2018-01-13
6124,Sold,5299543,13446806,"19Ξ ($39,273)","Apr 08, 2021",19,39273,2021-04-08
6124,Sold,10720113,11644366,"6.99Ξ ($12,688)","Feb 13, 2021",6.99,12688,2021-02-13
6124,Sold,13275108,10720113,"5.10Ξ ($6,042)","Jan 06, 2021",5.1,6042,2021-01-06
6125,Sold,zonted,0x50664e,"25Ξ ($42,371)","Feb 23, 2021",25,42371,2021-02-23
6125,Sold,_K_A_M_I…,zonted,"2.90Ξ ($1,001)","Sep 25, 2020",2.9,1001,2020-09-25
6125,Sold,OnlyToas…,_K_A_M_I…,1.90Ξ ($717),"Sep 14, 2020",1.9,717,2020-09-14
6125,Sold,Myph-Spa…,OnlyToas…,1.60Ξ ($602),"Sep 14, 2020",1.6,602,2020-09-14
6125,Sold,CPyrc,Myph-Spa…,1.49Ξ ($550),"Sep 11, 2020",1.49,550,2020-09-11
6125,Sold,Pranksy,CPyrc,1.25Ξ ($460),"Sep 11, 2020",1.25,460,2020-09-11
6125,Sold,0x00d7c9,Pranksy,0.25Ξ ($45),"Sep 02, 2019",0.25,45,2019-09-02
6126,Sold,14272451,8010080,"6.40Ξ ($2,248)","Oct 05, 2020",6.4,2248,2020-10-05
6126,Sold,55241,14272451,0.23Ξ ($49),"Aug 12, 2019",0.23,49,2019-08-12
6127,Sold,0x5f5df4,12782567,"22.50Ξ ($39,869)","Mar 16, 2021",22.5,39869,2021-03-16
6129,Sold,13275108,10477426,"5.10Ξ ($5,898)","Jan 08, 2021",5.1,5898,2021-01-08
6130,Sold,OnlyToas…,0x50664e,"18.49Ξ ($33,519)","Mar 11, 2021",18.49,33519,2021-03-11
6130,Sold,0x13816f,0x568cf5,"5.69Ξ ($2,012)","Sep 29, 2020",5.69,2012,2020-09-29
6130,Sold,0x3ba9cd,0x13816f,"3.15Ξ ($1,114)","Sep 27, 2020",3.15,1114,2020-09-27
6130,Sold,Carlini8,0x3ba9cd,2Ξ ($679),"Sep 23, 2020",2,679,2020-09-23
6130,Sold,0x5b098b,Carlini8,1.59Ξ ($599),"Sep 14, 2020",1.59,599,2020-09-14
6130,Sold,Cyborg,0x5b098b,0.24Ξ ($63),"Jul 04, 2017",0.24,63,2017-07-04
6131,Sold,0xbb048e,5082683,"22Ξ ($39,544)","Mar 22, 2021",22,39544,2021-03-22
6131,Sold,0x5f5df4,12256398,"24Ξ ($36,744)","Feb 23, 2021",24,36744,2021-02-23
6133,Sold,Slats_et…,0x4e0030,"7.90Ξ ($9,868)","Jan 27, 2021",7.9,9868,2021-01-27
6133,Sold,0x4960c4…,Slats_et…,"7.25Ξ ($1,492)","May 27, 2020",7.25,1492,2020-05-27
6133,Sold,0x00d7c9,0x4960c4…,0.10Ξ ($29),"Oct 28, 2017",0.1,29,2017-10-28
6134,Sold,0xc9ab58,0x9e199d,"4.99Ξ ($8,208)","Feb 08, 2021",4.99,8208,2021-02-08
6134,Sold,JcW0rLd9…,0xc9ab58,"4.50Ξ ($6,445)","Feb 02, 2021",4.5,6445,2021-02-02
6134,Sold,0x7d7753,JcW0rLd9…,1Ξ ($259),"Feb 25, 2020",1,259,2020-02-25
6134,Sold,juggerna…,0x7d7753,0.30Ξ ($90),"Aug 14, 2017",0.3,90,2017-08-14
6134,Sold,Cyborg,juggerna…,0.20Ξ ($51),"Aug 05, 2017",0.2,51,2017-08-05
6135,Sold,13275108,6811088,"50Ξ ($91,223)","Mar 17, 2021",50,91223,2021-03-17
6137,Sold,0x585f98,0xdffbaf,"7.77Ξ ($2,829)","Oct 09, 2020",7.77,2829,2020-10-09
6140,Sold,natealex,0x27c79a,1.90Ξ ($383),"May 26, 2020",1.9,383,2020-05-26
6140,Sold,Michel_M…,natealex,0.99Ξ ($210),"May 19, 2020",0.99,210,2020-05-19
6140,Sold,0xcEd199…,Michel_M…,0.30Ξ ($40),"Mar 14, 2019",0.3,40,2019-03-14
6140,Sold,0x6b88ac,0xcEd199…,0.40Ξ ($79),"Jul 14, 2017",0.4,79,2017-07-14
6140,Sold,0xe45df5,0x6b88ac,0.20Ξ ($52),"Jul 01, 2017",0.2,52,2017-07-01
6140,Sold,0xf138eb,0xe45df5,0.10Ξ ($28),"Jun 25, 2017",0.1,28,2017-06-25
6141,Sold,5772875,7435267,0.05Ξ ($19),"Apr 04, 2018",0.05,19,2018-04-04
6142,Sold,EliteCat…,0xf7d845,"10.25Ξ ($18,848)","Feb 14, 2021",10.25,18848,2021-02-14
6142,Sold,0x0b30fd,GoWest23,0.45Ξ ($78),"May 06, 2019",0.45,78,2019-05-06
6143,Sold,juggerna…,7478,0.25Ξ ($45),"Oct 26, 2019",0.25,45,2019-10-26
6145,Sold,0x585f98,7823584,"1.70Ξ ($2,174)","Jan 15, 2018",1.7,2174,2018-01-15
6147,Sold,GtC,scalynel…,"7Ξ ($7,267)","Jan 05, 2021",7,7267,2021-01-05
6147,Sold,Pranksy,GtC,0.55Ξ ($104),"Sep 15, 2019",0.55,104,2019-09-15
6147,Sold,0x00d7c9,Pranksy,0.25Ξ ($45),"Sep 02, 2019",0.25,45,2019-09-02
6150,Sold,jmg,0xbac42c,"6.99Ξ ($9,422)","Jan 10, 2021",6.99,9422,2021-01-10
6150,Sold,0x58164b,jmg,0.06Ξ ($50),"Feb 24, 2018",0.06,50,2018-02-24
6152,Sold,TweetyPi…,0xa59ab1,"8Ξ ($5,162)","Dec 27, 2020",8,5162,2020-12-27
6152,Sold,2pac,Sylveste…,"4.10Ξ ($2,399)","Dec 14, 2020",4.1,2399,2020-12-14
6152,Sold,Liber8Ho…,0x257e2b,"11.99Ξ ($4,405)","Oct 16, 2020",11.99,4405,2020-10-16
6152,Sold,0xf5099e,Liber8Ho…,0.45Ξ ($60),"Dec 18, 2019",0.45,60,2019-12-18
6152,Sold,0x682c30,0xa0a59c,0.25Ξ ($67),"Jul 04, 2017",0.25,67,2017-07-04
6154,Sold,0xad4f9e,Thing,"7.49Ξ ($2,626)","Oct 03, 2020",7.49,2626,2020-10-03
6154,Sold,Dude_Nak…,0xad4f9e,"6.95Ξ ($2,447)","Oct 02, 2020",6.95,2447,2020-10-02
6154,Sold,PM_disco…,Dude_Nak…,"4Ξ ($1,524)","Sep 18, 2020",4,1524,2020-09-18
6154,Sold,TokenAng…,PM_disco…,2.70Ξ ($629),"Jun 25, 2020",2.7,629,2020-06-25
6154,Sold,0x00d7c9,TokenAng…,0.50Ξ ($95),"Sep 15, 2019",0.5,95,2019-09-15
6156,Sold,0x13816f,0x5ea968,"10.90Ξ ($19,837)","Feb 17, 2021",10.9,19837,2021-02-17
6156,Sold,0x3ba9cd,0x13816f,"3.80Ξ ($1,344)","Sep 27, 2020",3.8,1344,2020-09-27
6156,Sold,Carlini8,0x3ba9cd,"3Ξ ($1,034)","Sep 25, 2020",3,1034,2020-09-25
6156,Sold,Sylveste…,Carlini8,2.30Ξ ($865),"Sep 14, 2020",2.3,865,2020-09-14
6156,Sold,Hemba,Sylveste…,1.40Ξ ($515),"Sep 11, 2020",1.4,515,2020-09-11
6158,Sold,antunes_…,0x742117,"26Ξ ($46,537)","Mar 21, 2021",26,46537,2021-03-21
6158,Sold,0x167e00,antunes_…,"23Ξ ($39,287)","Feb 22, 2021",23,39287,2021-02-22
6158,Sold,curating…,0x167e00,"8Ξ ($10,316)","Jan 27, 2021",8,10316,2021-01-27
6160,Sold,0xbf6ccf,0x1f5a39,"4.89Ξ ($5,161)","Jan 12, 2021",4.89,5161,2021-01-12
6160,Sold,evkort,0xbf6ccf,"3.99Ξ ($2,485)","Dec 22, 2020",3.99,2485,2020-12-22
6160,Sold,0x34cdf7,evkort,0.10Ξ ($35),"Oct 06, 2020",0.1,35,2020-10-06
6160,Sold,evkort,0x34cdf7,0.10Ξ ($35),"Oct 06, 2020",0.1,35,2020-10-06
6160,Sold,j1mmy,evkort,"6Ξ ($2,126)","Oct 05, 2020",6,2126,2020-10-05
6160,Sold,TweetyPi…,j1mmy,0.44Ξ ($57),"Jan 01, 2020",0.44,57,2020-01-01
6160,Sold,TweetyPi…,TweetyPi…,0.30Ξ ($39),"Dec 30, 2019",0.3,39,2019-12-30
6160,Sold,ark1,TweetyPi…,0.37Ξ ($45),"Dec 17, 2019",0.37,45,2019-12-17
6160,Sold,0x00d7c9,ark1,0.25Ξ ($47),"Sep 15, 2019",0.25,47,2019-09-15
6162,Sold,Pranksy,0xa9c206,0.55Ξ ($96),"Sep 27, 2019",0.55,96,2019-09-27
6162,Sold,0x00d7c9,Pranksy,0.25Ξ ($45),"Sep 02, 2019",0.25,45,2019-09-02
6167,Sold,0x07c5ea,0xfb2036,"8.75Ξ ($15,814)","Feb 15, 2021",8.75,15814,2021-02-15
6167,Sold,0x13816f,0x07c5ea,"7.77Ξ ($14,050)","Feb 14, 2021",7.77,14050,2021-02-14
6167,Sold,Pranksy,gaus,2.89Ξ ($985),"Sep 25, 2020",2.89,985,2020-09-25
6167,Sold,Hemba,Pranksy,2.30Ξ ($796),"Sep 24, 2020",2.3,796,2020-09-24
6168,Sold,12192872,6689278,"25Ξ ($44,630)","Mar 15, 2021",25,44630,2021-03-15
6169,Sold,2299655,13446246,1Ξ ($383),"Aug 02, 2020",1,383,2020-08-02
6170,Sold,11890347,9655586,"24.99Ξ ($47,161)","Mar 13, 2021",24.99,47161,2021-03-13
6170,Sold,10688777,6305883,"2.49Ξ ($3,782)","Mar 05, 2021",2.49,3782,2021-03-05
6170,Sold,3699717,10688777,"18.50Ξ ($27,581)","Mar 05, 2021",18.5,27581,2021-03-05
6177,Sold,0x9c6b51,0x64d49a,"28.50Ξ ($51,153)","Mar 22, 2021",28.5,51153,2021-03-22
6177,Sold,Kataster…,0x9c6b51,"22Ξ ($40,178)","Mar 19, 2021",22,40178,2021-03-19
6177,Sold,0x9cd85c,Kataster…,0.57Ξ ($82),"Jan 10, 2020",0.57,82,2020-01-10
6177,Sold,Zieg,0x9cd85c,0.55Ξ ($74),"Jan 04, 2020",0.55,74,2020-01-04
6178,Sold,0xe45df5,Snowfro,0.64Ξ ($102),"Feb 23, 2019",0.64,102,2019-02-23
6183,Sold,0xe4446d,0x064cfc,"45Ξ ($65,911)","Feb 27, 2021",45,65911,2021-02-27
6183,Sold,TokenAng…,0xe4446d,"33Ξ ($65,106)","Feb 21, 2021",33,65106,2021-02-21
6183,Sold,tstorm.e…,TokenAng…,1Ξ ($263),"Jun 12, 2019",1,263,2019-06-12
6185,Sold,0x48db19,Choyna,1.10Ξ ($248),"Jun 30, 2020",1.1,248,2020-06-30
6187,Sold,0x4960c4…,0x8bb4f3,"21Ξ ($40,592)","Feb 21, 2021",21,40592,2021-02-21
6187,Sold,0xe369a8,0x4960c4…,"16Ξ ($31,470)","Feb 19, 2021",16,31470,2021-02-19
6187,Sold,0x00ce50,0xe369a8,"12Ξ ($23,347)","Feb 19, 2021",12,23347,2021-02-19
6188,Sold,Hemba,0xf4a775,0.10Ξ ($46),"Dec 03, 2017",0.1,46,2017-12-03
6190,Sold,55241,9876623,0.10Ξ ($57),"May 29, 2018",0.1,57,2018-05-29
6191,Sold,0x3e17fa,0x72fad4,"11.20Ξ ($20,444)","Feb 16, 2021",11.2,20444,2021-02-16
6191,Sold,MrTpunks,0x3e17fa,"11Ξ ($18,806)","Feb 15, 2021",11,18806,2021-02-15
6191,Sold,0xcb832d,MrTpunks,"7.80Ξ ($2,829)","Sep 28, 2020",7.8,2829,2020-09-28
6191,Sold,VonMises,0xcb832d,2.69Ξ ($978),"Sep 13, 2020",2.69,978,2020-09-13
6191,Sold,Hemba,0xaf5e63,1.33Ξ ($266),"May 04, 2020",1.33,266,2020-05-04
6192,Sold,0x8f6b1e,0xb09861,"21.85Ξ ($41,031)","Feb 22, 2021",21.85,41031,2021-02-22
6192,Sold,charley,0xd84e80,"6.30Ξ ($11,275)","Feb 11, 2021",6.3,11275,2021-02-11
6192,Sold,0xb40dac,gaus,"3.50Ξ ($1,252)","Sep 28, 2020",3.5,1252,2020-09-28
6192,Sold,redlione…,0xb40dac,"3.15Ξ ($1,124)","Sep 27, 2020",3.15,1124,2020-09-27
6192,Sold,Pranksy,redlione…,"2.89Ξ ($1,026)","Sep 25, 2020",2.89,1026,2020-09-25
6192,Sold,Hemba,Pranksy,2.30Ξ ($796),"Sep 24, 2020",2.3,796,2020-09-24
6193,Sold,tonyherr…,0x67e095,"5.20Ξ ($7,218)","Jan 30, 2021",5.2,7218,2021-01-30
6193,Sold,0x387405,tonyherr…,"4.93Ξ ($6,046)","Jan 14, 2021",4.93,6046,2021-01-14
6195,Sold,Ajiyl,0xb94f56,"8Ξ ($2,911)","Sep 28, 2020",8,2911,2020-09-28
6195,Sold,Hemba,Ajiyl,0.10Ξ ($46),"Dec 03, 2017",0.1,46,2017-12-03
6196,Sold,0x0e4437,0x950ec3,"27.50Ξ ($49,535)","Mar 16, 2021",27.5,49535,2021-03-16
6196,Sold,GtC,0x0e4437,"7.50Ξ ($12,441)","Feb 05, 2021",7.5,12441,2021-02-05
6196,Sold,0x00d7c9,GtC,0.25Ξ ($45),"Sep 03, 2019",0.25,45,2019-09-03
6197,Sold,0xc9ab58,0xe5e771,2.29Ξ ($778),"Sep 23, 2020",2.29,778,2020-09-23
6197,Sold,Michel_M…,0xc9ab58,2.04Ξ ($691),"Sep 23, 2020",2.04,691,2020-09-23
6197,Sold,Pranksy,Michel_M…,1.99Ξ ($683),"Sep 22, 2020",1.99,683,2020-09-22
6197,Sold,natealex,Pranksy,1.75Ξ ($659),"Sep 14, 2020",1.75,659,2020-09-14
6197,Sold,Pranksy,natealex,1.25Ξ ($459),"Sep 11, 2020",1.25,459,2020-09-11
6197,Sold,0x00d7c9,Pranksy,0.25Ξ ($45),"Sep 02, 2019",0.25,45,2019-09-02
6200,Sold,0x58164b,Kenney,0.08Ξ ($60),"May 07, 2018",0.08,60,2018-05-07
6204,Sold,55241,4134692,0.10Ξ ($37),"Nov 20, 2017",0.1,37,2017-11-20
6205,Sold,0x6f4a2d,9316084,"22.85Ξ ($40,842)","Mar 15, 2021",22.85,40842,2021-03-15
6205,Sold,0xd3e2e7,7293485,"7.90Ξ ($14,356)","Feb 13, 2021",7.9,14356,2021-02-13
6205,Sold,0x387405,13886183,"4.40Ξ ($5,376)","Jan 15, 2021",4.4,5376,2021-01-15
6206,Sold,Hemba,0x27c79a,1.10Ξ ($222),"May 22, 2020",1.1,222,2020-05-22
6207,Sold,Carlini8,0x023b91,"15Ξ ($27,412)","Feb 17, 2021",15,27412,2021-02-17
6207,Sold,niwin,Carlini8,"8Ξ ($13,885)","Feb 09, 2021",8,13885,2021-02-09
6207,Sold,Punkofth…,niwin,"5.90Ξ ($2,147)","Sep 28, 2020",5.9,2147,2020-09-28
6208,Sold,48442,8008732,0.19Ξ ($50),"Jul 01, 2017",0.19,50,2017-07-01
6208,Sold,5966219,48442,0.06Ξ ($20),"Jun 23, 2017",0.06,20,2017-06-23
6209,Sold,ark1,josie,0.35Ξ ($43),"Dec 17, 2019",0.35,43,2019-12-17
6209,Sold,0x00d7c9,ark1,0.25Ξ ($47),"Sep 15, 2019",0.25,47,2019-09-15
6210,Sold,0x5fd36a,darklord…,"27.89Ξ ($49,651)","Mar 22, 2021",27.89,49651,2021-03-22
6210,Sold,0x62bdc6,0x5fd36a,"26.50Ξ ($46,543)","Mar 12, 2021",26.5,46543,2021-03-12
6210,Sold,0x5f5df4,0x62bdc6,"25.99Ξ ($46,305)","Mar 11, 2021",25.99,46305,2021-03-11
6211,Sold,12955750,darklord…,"21.90Ξ ($41,101)","Mar 14, 2021",21.9,41101,2021-03-14
6211,Sold,5734076,0xc5b066,"20.49Ξ ($37,419)","Mar 11, 2021",20.49,37419,2021-03-11
6215,Sold,6471110,2723737,"24Ξ ($43,344)","Mar 31, 2021",24,43344,2021-03-31
6215,Sold,13275108,6471110,"27Ξ ($46,279)","Mar 27, 2021",27,46279,2021-03-27
6216,Sold,0x0553de,snowfro,0.75Ξ ($105),"Mar 27, 2019",0.75,105,2019-03-27
6216,Sold,0xc2ac3c,0x0553de,0.40Ξ ($50),"Jan 19, 2019",0.4,50,2019-01-19
6216,Sold,0x00d7c9,0xb11d6a,0.10Ξ ($59),"May 26, 2018",0.1,59,2018-05-26
6217,Sold,0xb155c5,alexx.et…,"29Ξ ($51,762)","Mar 12, 2021",29,51762,2021-03-12
6217,Sold,0x577ebc,0xb155c5,"22Ξ ($36,626)","Mar 07, 2021",22,36626,2021-03-07
6218,Sold,Hemba,0x73e788,0.18Ξ ($207),"Jan 20, 2018",0.18,207,2018-01-20
6219,Sold,12196282,4069370,"10Ξ ($18,526)","Feb 13, 2021",10,18526,2021-02-13
6220,Sold,Goop,0x98c488,0.75Ξ ($151),"May 17, 2020",0.75,151,2020-05-17
6220,Sold,0xe45df5,Goop,0.60Ξ ($102),"Jan 17, 2020",0.6,102,2020-01-17
6221,Sold,0x577ebc,15993661,"24.99Ξ ($44,429)","Mar 21, 2021",24.99,44429,2021-03-21
6222,Sold,6827056,sov,0.25Ξ ($71),"Jul 02, 2017",0.25,71,2017-07-02
6225,Sold,0x6611fe,393680,2.50Ξ ($356),"Jan 06, 2020",2.5,356,2020-01-06
6225,Sold,0x8234be,6689278,0.51Ξ ($114),"Jul 12, 2017",0.51,114,2017-07-12
6226,Sold,Korniej,0xe9e7b8,"11Ξ ($20,301)","Feb 14, 2021",11,20301,2021-02-14
6226,Sold,0xff40d2,Korniej,"3.85Ξ ($2,221)","Nov 30, 2020",3.85,2221,2020-11-30
6226,Sold,0x4fa27c,0xff40d2,"4.85Ξ ($1,886)","Oct 31, 2020",4.85,1886,2020-10-31
6226,Sold,MrTpunks…,0x4fa27c,"6Ξ ($2,230)","Oct 11, 2020",6,2230,2020-10-11
6226,Sold,TJ2010,MrTpunks…,"5.75Ξ ($2,058)","Sep 28, 2020",5.75,2058,2020-09-28
6226,Sold,DANNY,TJ2010,1.40Ξ ($492),"Sep 09, 2020",1.4,492,2020-09-09
6226,Sold,0x1a96af,DANNY,1.11Ξ ($243),"May 03, 2020",1.11,243,2020-05-03
6227,Sold,14966261,3112815,1Ξ ($206),"Aug 10, 2019",1,206,2019-08-10
6228,Sold,25917,9233878,"12.80Ξ ($24,781)","Feb 18, 2021",12.8,24781,2021-02-18
6229,Sold,0xcbd482,7435267,0.05Ξ ($14),"Jun 27, 2017",0.05,14,2017-06-27
6230,Sold,0xf1b658,0x28a908,"7.39Ξ ($13,853)","Feb 13, 2021",7.39,13853,2021-02-13
6230,Sold,0xc9ab58,0x5b331e,"6.50Ξ ($10,545)","Feb 08, 2021",6.5,10545,2021-02-08
6230,Sold,0xc155f9,0xc9ab58,"6.45Ξ ($8,580)","Feb 01, 2021",6.45,8580,2021-02-01
6230,Sold,0xc3baaa,0xc155f9,"4.50Ξ ($5,398)","Jan 08, 2021",4.5,5398,2021-01-08
6230,Sold,2pac,0x4b62ae,"3Ξ ($1,388)","Nov 14, 2020",3,1388,2020-11-14
6230,Sold,lander,0x257e2b,"4.70Ξ ($1,823)","Oct 12, 2020",4.7,1823,2020-10-12
6230,Sold,MrTpunks,lander,"5.50Ξ ($1,968)","Sep 28, 2020",5.5,1968,2020-09-28
6230,Sold,0xf4239e,MrTpunks,"3.80Ξ ($1,337)","Sep 27, 2020",3.8,1337,2020-09-27
6230,Sold,0xb40dac,0xf4239e,"3.50Ξ ($1,237)","Sep 26, 2020",3.5,1237,2020-09-26
6230,Sold,Hemba,0xb40dac,"3Ξ ($1,054)","Sep 24, 2020",3,1054,2020-09-24
6233,Sold,shilpixe…,MadMax,0.85Ξ ($172),"May 14, 2020",0.85,172,2020-05-14
6234,Sold,ark1,Kataster…,0.35Ξ ($43),"Dec 17, 2019",0.35,43,2019-12-17
6234,Sold,0x00d7c9,ark1,0.25Ξ ($47),"Sep 15, 2019",0.25,47,2019-09-15
6235,Sold,0xe1bb6e,0x809e7b,"27.27Ξ ($48,400)","Mar 15, 2021",27.27,48400,2021-03-15
6235,Sold,Pranksy,0x585755,0.60Ξ ($108),"Oct 12, 2019",0.6,108,2019-10-12
6235,Sold,0x00d7c9,Pranksy,0.25Ξ ($45),"Sep 02, 2019",0.25,45,2019-09-02
6236,Sold,8533182,7794320,0.13Ξ ($103),"Dec 21, 2017",0.13,103,2017-12-21
6241,Sold,0x95318b,0x268169,"7.70Ξ ($9,867)","Jan 26, 2021",7.7,9867,2021-01-26
6241,Sold,TweetyPi…,0x95318b,"6Ξ ($7,517)","Jan 23, 2021",6,7517,2021-01-23
6241,Sold,0x82f3d9,TweetyPi…,"3.50Ξ ($1,923)","Dec 11, 2020",3.5,1923,2020-12-11
6241,Sold,0x0b30fd,0x82f3d9,"0.89Ξ ($1,139)","Jan 15, 2018",0.89,1139,2018-01-15
6247,Sold,0xcbd482,7435267,0.05Ξ ($14),"Jun 27, 2017",0.05,14,2017-06-27
6248,Sold,Novo311,0x7efe3a,"5.98Ξ ($7,885)","Jan 24, 2021",5.98,7885,2021-01-24
6248,Sold,Pranksy,0x491be7,"5.70Ξ ($2,006)","Oct 04, 2020",5.7,2006,2020-10-04
6248,Sold,KittyGr_…,Pranksy,"4Ξ ($1,411)","Oct 04, 2020",4,1411,2020-10-04
6248,Sold,0x8234be,KittyGr_…,0.10Ξ ($60),"Jun 08, 2018",0.1,60,2018-06-08
6251,Sold,5560313,150475,"26.50Ξ ($53,152)","Feb 20, 2021",26.5,53152,2021-02-20
6251,Sold,6689278,5560313,"15.90Ξ ($27,929)","Feb 16, 2021",15.9,27929,2021-02-16
6252,Sold,0x682c30,45688,0.31Ξ ($82),"Jul 05, 2017",0.31,82,2017-07-05
6253,Sold,✨🚀🌙.et…,0xa4ba53,"18Ξ ($34,576)","Apr 01, 2021",18,34576,2021-04-01
6254,Sold,Pranksy,snax,1.99Ξ ($755),"Sep 12, 2020",1.99,755,2020-09-12
6254,Sold,Goop,alxo,0.26Ξ ($40),"Nov 23, 2019",0.26,40,2019-11-23
6254,Sold,juggerna…,Goop,0.25Ξ ($38),"Nov 23, 2019",0.25,38,2019-11-23
6257,Sold,0x07c5ea,charley,"10.50Ξ ($19,448)","Feb 17, 2021",10.5,19448,2021-02-17
6257,Sold,0x577ebc,0x07c5ea,"9.50Ξ ($17,127)","Feb 17, 2021",9.5,17127,2021-02-17
6259,Sold,Hemba,0x9b35db,1.10Ξ ($422),"Aug 26, 2020",1.1,422,2020-08-26
6260,Sold,ark1,ArtBlock…,0.39Ξ ($48),"Dec 17, 2019",0.39,48,2019-12-17
6260,Sold,0x00d7c9,ark1,0.25Ξ ($47),"Sep 15, 2019",0.25,47,2019-09-15
6265,Sold,14638710,12502685,"27.50Ξ ($49,401)","Mar 16, 2021",27.5,49401,2021-03-16
6265,Sold,2299655,14638710,"24Ξ ($46,032)","Feb 22, 2021",24,46032,2021-02-22
6266,Sold,0xf2907a,0x61e193,"23.70Ξ ($50,183)","Apr 05, 2021",23.7,50183,2021-04-05
6266,Sold,EliteCat…,0xa76119,"19Ξ ($32,376)","Mar 28, 2021",19,32376,2021-03-28
6266,Sold,0x577ebc,EliteCat…,"34.99Ξ ($62,086)","Mar 12, 2021",34.99,62086,2021-03-12
6268,Sold,0x29b1b2,0x04ede4,"29.99Ξ ($46,769)","Mar 04, 2021",29.99,46769,2021-03-04
6268,Sold,0x19ac60,0x29b1b2,"6Ξ ($8,426)","Jan 25, 2021",6,8426,2021-01-25
6272,Sold,0xc155f9,150475,"18Ξ ($36,103)","Feb 20, 2021",18,36103,2021-02-20
6272,Sold,0x00ce50,12670457,"12Ξ ($23,602)","Feb 19, 2021",12,23602,2021-02-19
6273,Sold,aclCrypt…,0x3efe8b,"32Ξ ($47,025)","Feb 27, 2021",32,47025,2021-02-27
6273,Sold,0x00d7c9,0x1d234b,0.10Ξ ($66),"Dec 22, 2017",0.1,66,2017-12-22
6276,Sold,0x1f5f63,wookie.e…,"21Ξ ($38,171)","Mar 18, 2021",21,38171,2021-03-18
6276,Sold,0x4dea06,0x1f5f63,"22.50Ξ ($41,101)","Mar 17, 2021",22.5,41101,2021-03-17
6276,Sold,0x20af8c,0x4dea06,"21.94Ξ ($39,740)","Mar 17, 2021",21.94,39740,2021-03-17
6276,Sold,0x8f6b1e,0x20af8c,"13.65Ξ ($26,641)","Feb 21, 2021",13.65,26641,2021-02-21
6276,Sold,tonyherr…,0xd84e80,"6Ξ ($10,738)","Feb 11, 2021",6,10738,2021-02-11
6276,Sold,0x033ee7,tonyherr…,"4.89Ξ ($6,701)","Jan 30, 2021",4.89,6701,2021-01-30
6276,Sold,MrNFT,0x033ee7,2.85Ξ ($986),"Sep 24, 2020",2.85,986,2020-09-24
6276,Sold,Pranksy,MrNFT,2.19Ξ ($757),"Sep 24, 2020",2.19,757,2020-09-24
6276,Sold,Hemba,Pranksy,1.80Ξ ($613),"Sep 22, 2020",1.8,613,2020-09-22
6278,Sold,3899172,4620970,"27.50Ξ ($40,899)","Feb 26, 2021",27.5,40899,2021-02-26
6278,Sold,4031958,3899172,"27Ξ ($43,445)","Feb 23, 2021",27,43445,2021-02-23
6278,Sold,55241,4031958,0.10Ξ ($33),"Nov 15, 2017",0.1,33,2017-11-15
6281,Sold,0x1d337f,0x8f8b47,"29.45Ξ ($53,706)","Mar 19, 2021",29.45,53706,2021-03-19
6281,Sold,0xfa1c0-…,0xb166dd,"7.50Ξ ($9,971)","Jan 24, 2021",7.5,9971,2021-01-24
6281,Sold,MBK,GoWest23,0.89Ξ ($144),"Jan 16, 2020",0.89,144,2020-01-16
6281,Sold,Pranksy,MBK,0.50Ξ ($66),"Jan 01, 2020",0.5,66,2020-01-01
6281,Sold,0x00d7c9,Pranksy,0.25Ξ ($45),"Sep 02, 2019",0.25,45,2019-09-02
6282,Sold,55241,stazie,0.45Ξ ($108),"Jun 04, 2019",0.45,108,2019-06-04
6287,Sold,5734076,12502685,"26.99Ξ ($49,868)","Mar 20, 2021",26.99,49868,2021-03-20
6288,Sold,3van.eth,KennyB,"15.99Ξ ($17,150)","Jan 13, 2021",15.99,17150,2021-01-13
6288,Sold,0xca8fe4,3van.eth,"14Ξ ($17,647)","Jan 07, 2021",14,17647,2021-01-07
6289,Sold,0x00d7c9,7435267,0.05Ξ ($26),"May 28, 2018",0.05,26,2018-05-28
6291,Sold,ross_VRO…,0x9ebcc5,"9.99Ξ ($18,011)","Feb 17, 2021",9.99,18011,2021-02-17
6291,Sold,0xca8fe4,ross_VRO…,"6.70Ξ ($11,788)","Feb 09, 2021",6.7,11788,2021-02-09
6292,Sold,Hemba,0x4c1bd9…,1.15Ξ ($246),"May 20, 2020",1.15,246,2020-05-20
6294,Sold,hellogar…,0x3245d3,"21Ξ ($41,319)","Feb 21, 2021",21,41319,2021-02-21
6294,Sold,0xa7eba7,hellogar…,"19Ξ ($34,783)","Feb 14, 2021",19,34783,2021-02-14
6295,Sold,Michel_M…,capital_…,2.59Ξ ($621),"Jul 10, 2020",2.59,621,2020-07-10
6295,Sold,ChrisR,Michel_M…,2.95Ξ ($695),"Jun 22, 2020",2.95,695,2020-06-22
6295,Sold,0x00d7c9,ChrisR,0.42Ξ ($124),"Jun 21, 2019",0.42,124,2019-06-21
6297,Sold,0x832179,0xc606bb,"215Ξ ($343,933)","Feb 07, 2021",215,343933,2021-02-07
6298,Sold,55241,Kenney,0.10Ξ ($58),"May 25, 2018",0.1,58,2018-05-25
6300,Sold,0x58164b,Kenney,0.06Ξ ($45),"May 07, 2018",0.06,45,2018-05-07
6301,Sold,13275108,329791,"26.99Ξ ($52,099)","Mar 13, 2021",26.99,52099,2021-03-13
6302,Sold,LeafyGre…,0x3e17fa,"4.80Ξ ($1,706)","Sep 26, 2020",4.8,1706,2020-09-26
6302,Sold,Hemba,LeafyGre…,1.55Ξ ($570),"Sep 11, 2020",1.55,570,2020-09-11
6303,Sold,0x9ce03d,gaus,"3.40Ξ ($1,222)","Sep 28, 2020",3.4,1222,2020-09-28
6303,Sold,0xe754d1,0x9ce03d,"3Ξ ($1,064)","Sep 27, 2020",3,1064,2020-09-27
6303,Sold,cryptoke…,0xe754d1,"2.84Ξ ($1,009)","Sep 26, 2020",2.84,1009,2020-09-26
6303,Sold,0x067034,cryptoke…,"2.85Ξ ($1,012)","Sep 25, 2020",2.85,1012,2020-09-25
6303,Sold,Carlini8,0x067034,2.30Ξ ($752),"Sep 24, 2020",2.3,752,2020-09-24
6303,Sold,Myph-Spa…,Carlini8,1.55Ξ ($584),"Sep 14, 2020",1.55,584,2020-09-14
6303,Sold,CPyrc,Myph-Spa…,1.49Ξ ($550),"Sep 11, 2020",1.49,550,2020-09-11
6303,Sold,Pranksy,CPyrc,1.25Ξ ($459),"Sep 11, 2020",1.25,459,2020-09-11
6303,Sold,0x2e519b,Pranksy,1.15Ξ ($419),"Sep 11, 2020",1.15,419,2020-09-11
6303,Sold,0x00d7c9,0x2e519b,0.30Ξ ($56),"Aug 27, 2019",0.3,56,2019-08-27
6306,Sold,55241,7823584,0.20Ξ ($59),"Oct 26, 2017",0.2,59,2017-10-26
6307,Sold,Pranksy,snowfro,0.45Ξ ($58),"Dec 23, 2019",0.45,58,2019-12-23
6307,Sold,0x00d7c9,Pranksy,0.25Ξ ($45),"Sep 02, 2019",0.25,45,2019-09-02
6312,Sold,0xca8fe4,🏃🏻‍♂.e…,"18.50Ξ ($35,736)","Apr 01, 2021",18.5,35736,2021-04-01
6313,Sold,8826734,7755101,"24.97Ξ ($41,372)","Feb 24, 2021",24.97,41372,2021-02-24
6313,Sold,9093328,8826734,"23.50Ξ ($39,703)","Feb 24, 2021",23.5,39703,2021-02-24
6313,Sold,55241,430439,0.25Ξ ($54),"Jul 22, 2019",0.25,54,2019-07-22
6314,Sold,957165,8130379,"24.99Ξ ($53,497)","Apr 12, 2021",24.99,53497,2021-04-12
6314,Sold,5966219,957165,"22.20Ξ ($47,414)","Apr 11, 2021",22.2,47414,2021-04-11
6315,Sold,14966261,13156629,0.20Ξ ($56),"Jun 25, 2017",0.2,56,2017-06-25
6315,Sold,15808747,14966261,0.10Ξ ($28),"Jun 25, 2017",0.1,28,2017-06-25
6316,Sold,0x5b098b,16745492,0.18Ξ ($58),"Jun 28, 2017",0.18,58,2017-06-28
6318,Sold,5966219,22324,0.11Ξ ($35),"Jun 23, 2017",0.11,35,2017-06-23
6322,Sold,cielxnoe…,0x3f1724,0.50Ξ ($69),"Mar 26, 2020",0.5,69,2020-03-26
6322,Sold,0x00d7c9,cielxnoe…,0.05Ξ ($28),"May 29, 2018",0.05,28,2018-05-29
6324,Sold,0x00d7c9,TokenAng…,0.50Ξ ($132),"Jun 14, 2019",0.5,132,2019-06-14
6326,Sold,Pranksy,0x73347b,"42.99Ξ ($77,711)","Mar 15, 2021",42.99,77711,2021-03-15
6326,Sold,2pac,VonMises,"10Ξ ($12,221)","Jan 16, 2021",10,12221,2021-01-16
6326,Sold,0xde0193,2pac,"6Ξ ($4,397)","Dec 31, 2020",6,4397,2020-12-31
6331,Sold,j1mmy,0x_NFT,"5.90Ξ ($2,140)","Sep 28, 2020",5.9,2140,2020-09-28
6331,Sold,Hemba,j1mmy,1.60Ξ ($584),"Sep 14, 2020",1.6,584,2020-09-14
6332,Sold,0x97db27,0x8eb5fb,"69.99Ξ ($150,778)","Apr 12, 2021",69.99,150778,2021-04-12
6332,Sold,0xf1b658,0x97db27,"30Ξ ($57,612)","Feb 19, 2021",30,57612,2021-02-19
6332,Sold,0x5b098b,0x5b331e,"15.90Ξ ($16,569)","Jan 11, 2021",15.9,16569,2021-01-11
6332,Sold,shilpixe…,0x5b098b,0.25Ξ ($98),"Sep 01, 2017",0.25,98,2017-09-01
6333,Sold,0xb810d1,0x42129d,"33Ξ ($50,781)","Mar 03, 2021",33,50781,2021-03-03
6333,Sold,MBK,0xb9ccfc,"6.75Ξ ($2,415)","Sep 28, 2020",6.75,2415,2020-09-28
6333,Sold,shilpixe…,MBK,1Ξ ($197),"Apr 28, 2020",1,197,2020-04-28
6335,Sold,55241,7074668,0.10Ξ ($19),"Sep 11, 2018",0.1,19,2018-09-11
6338,Sold,14215174,curating…,0.45Ξ ($135),"Aug 14, 2017",0.45,135,2017-08-14
6341,Sold,13401139,13643953,"7.04Ξ ($12,351)","Feb 09, 2021",7.04,12351,2021-02-09
6342,Sold,0x60206c,7823584,0.05Ξ ($10),"Jul 10, 2017",0.05,10,2017-07-10
6344,Sold,0x09d57f,moonphas…,"4.50Ξ ($1,559)","Sep 25, 2020",4.5,1559,2020-09-25
6346,Sold,0x02751f,juggerna…,0.20Ξ ($39),"Jul 30, 2017",0.2,39,2017-07-30
6353,Sold,14426637,1982821,"25Ξ ($41,859)","Mar 23, 2021",25,41859,2021-03-23
6353,Sold,6689278,14426637,"16Ξ ($31,580)","Feb 19, 2021",16,31580,2021-02-19
6354,Sold,0xa4fb10,0x4e2a48,"20.50Ξ ($44,062)","Apr 12, 2021",20.5,44062,2021-04-12
6354,Sold,0x067034,gaus,"2.85Ξ ($1,008)","Sep 26, 2020",2.85,1008,2020-09-26
6354,Sold,Pranksy,0x067034,1.78Ξ ($665),"Sep 20, 2020",1.78,665,2020-09-20
6354,Sold,natealex,Pranksy,1.64Ξ ($618),"Sep 14, 2020",1.64,618,2020-09-14
6354,Sold,scalynel…,natealex,1.30Ξ ($265),"May 27, 2020",1.3,265,2020-05-27
6354,Sold,0x6611fe,scalynel…,0.59Ξ ($98),"Jan 17, 2020",0.59,98,2020-01-17
6355,Sold,6689278,16195895,"9.75Ξ ($17,754)","Feb 16, 2021",9.75,17754,2021-02-16
6358,Sold,0x6611fe,0x00bd3a,0.40Ξ ($112),"Jun 30, 2017",0.4,112,2017-06-30
6360,Sold,14579643,13547068,"54Ξ ($114,209)","Apr 10, 2021",54,114209,2021-04-10
6363,Sold,Debonair…,0x90b60b,"16.86Ξ ($34,485)","Apr 08, 2021",16.86,34485,2021-04-08
6363,Sold,Goop,Ravachol,0.58Ξ ($113),"Apr 28, 2020",0.58,113,2020-04-28
6363,Sold,0x6611fe,Goop,0.55Ξ ($78),"Jan 08, 2020",0.55,78,2020-01-08
6366,Sold,6689278,11691176,"9.50Ξ ($17,196)","Feb 17, 2021",9.5,17196,2021-02-17
6372,Sold,0x9ff4ea,0xd03072,"22Ξ ($45,553)","Apr 08, 2021",22,45553,2021-04-08
6372,Sold,0x0b88fd,0x9ff4ea,"16Ξ ($33,478)","Apr 03, 2021",16,33478,2021-04-03
6374,Sold,point-gr…,0xfd127b,"24.97Ξ ($39,786)","Mar 25, 2021",24.97,39786,2021-03-25
6374,Sold,0x0b88fd,point-gr…,"24Ξ ($43,983)","Mar 20, 2021",24,43983,2021-03-20
6376,Sold,shilpixe…,0x4db1dd,"35Ξ ($63,874)","Mar 18, 2021",35,63874,2021-03-18
6379,Sold,0x81d98b,wookie.e…,"20Ξ ($35,990)","Mar 16, 2021",20,35990,2021-03-16
6379,Sold,0x023ef7,0x81d98b,"24.75Ξ ($40,582)","Feb 24, 2021",24.75,40582,2021-02-24
6379,Sold,0xa2df60,0x023ef7,"23.23Ξ ($41,215)","Feb 23, 2021",23.23,41215,2021-02-23
6379,Sold,0x577ebc,0xa2df60,"14.50Ξ ($27,915)","Feb 18, 2021",14.5,27915,2021-02-18
6381,Sold,8702240,5008775,"34Ξ ($53,234)","Feb 24, 2021",34,53234,2021-02-24
6381,Sold,7595170,8702240,"25Ξ ($48,702)","Feb 21, 2021",25,48702,2021-02-21
6384,Sold,TokenAng…,0x0e6167,"18Ξ ($35,512)","Feb 21, 2021",18,35512,2021-02-21
6384,Sold,juggerna…,TokenAng…,1.10Ξ ($228),"May 24, 2020",1.1,228,2020-05-24
6385,Sold,ark1,ArtBlock…,0.39Ξ ($48),"Dec 17, 2019",0.39,48,2019-12-17
6385,Sold,0x00d7c9,ark1,0.25Ξ ($47),"Sep 15, 2019",0.25,47,2019-09-15
6387,Sold,13886183,9350836,"8.50Ξ ($15,744)","Feb 17, 2021",8.5,15744,2021-02-17
6387,Sold,6689278,13886183,"8.25Ξ ($14,707)","Feb 15, 2021",8.25,14707,2021-02-15
6391,Sold,6689278,12572422,"10.49Ξ ($18,809)","Feb 16, 2021",10.49,18809,2021-02-16
6392,Sold,0x6611fe,psylo.et…,3.40Ξ ($689),"May 27, 2020",3.4,689,2020-05-27
6393,Sold,0x023ef7,5254050,"22.25Ξ ($45,239)","Apr 05, 2021",22.25,45239,2021-04-05
6393,Sold,0x0b88fd,147191,"20.25Ξ ($34,684)","Mar 24, 2021",20.25,34684,2021-03-24
6396,Sold,55241,430439,0.25Ξ ($54),"Jul 22, 2019",0.25,54,2019-07-22
6397,Sold,0x62bdc6,0xa4290d,"24.97Ξ ($53,811)","Apr 12, 2021",24.97,53811,2021-04-12
6397,Sold,0x36adad,gaus,2.50Ξ ($873),"Sep 25, 2020",2.5,873,2020-09-25
6397,Sold,0xe7be0f,0x36adad,2.30Ξ ($796),"Sep 24, 2020",2.3,796,2020-09-24
6397,Sold,Michel_M…,0xe7be0f,2.06Ξ ($694),"Sep 23, 2020",2.06,694,2020-09-23
6397,Sold,0x11c9a7,Michel_M…,1.92Ξ ($653),"Sep 23, 2020",1.92,653,2020-09-23
6397,Sold,Loopify,0x11c9a7,1.90Ξ ($706),"Sep 15, 2020",1.9,706,2020-09-15
6397,Sold,MrNFT,Loopify,1.79Ξ ($675),"Sep 14, 2020",1.79,675,2020-09-14
6397,Sold,natealex,MrNFT,1.61Ξ ($605),"Sep 14, 2020",1.61,605,2020-09-14
6397,Sold,Goop,natealex,0.68Ξ ($136),"May 14, 2020",0.68,136,2020-05-14
6397,Sold,0xf0f068…,Goop,0.66Ξ ($116),"Jan 19, 2020",0.66,116,2020-01-19
6397,Sold,0x6611fe,0xf0f068…,0.55Ξ ($80),"Jan 08, 2020",0.55,80,2020-01-08
6398,Sold,Hemba,cpu1,0.67Ξ ($135),"May 14, 2020",0.67,135,2020-05-14
6401,Sold,0x023ef7,8082565,"20.75Ξ ($43,397)","Apr 09, 2021",20.75,43397,2021-04-09
6401,Sold,0xabf107,147191,"18.50Ξ ($38,438)","Apr 08, 2021",18.5,38438,2021-04-08
6401,Sold,0xca8fe4,11268359,"17.99Ξ ($37,186)","Apr 08, 2021",17.99,37186,2021-04-08
6403,Sold,13275108,7377912,"28.50Ξ ($53,701)","Mar 15, 2021",28.5,53701,2021-03-15
6405,Sold,0xe281b9,5333848,"26Ξ ($54,103)","Apr 09, 2021",26,54103,2021-04-09
6405,Sold,0xca8fe4,14844345,"18Ξ ($30,388)","Mar 28, 2021",18,30388,2021-03-28
6406,Sold,0xca8fe4,heeee.et…,"33Ξ ($58,632)","Mar 18, 2021",33,58632,2021-03-18
6408,Sold,futurema…,Pixls,0.48Ξ ($142),"Jun 21, 2019",0.48,142,2019-06-21
6408,Sold,0x00d7c9,futurema…,0.50Ξ ($86),"May 08, 2019",0.5,86,2019-05-08
6411,Sold,NeonNFT,Meatloaf…,"3.50Ξ ($1,470)","Nov 05, 2020",3.5,1470,2020-11-05
6411,Sold,0x11c9a7,NeonNFT,"5.98Ξ ($2,137)","Sep 29, 2020",5.98,2137,2020-09-29
6411,Sold,j1mmy,0x11c9a7,"4.19Ξ ($1,499)","Sep 28, 2020",4.19,1499,2020-09-28
6411,Sold,Michel_M…,j1mmy,1.95Ξ ($718),"Sep 16, 2020",1.95,718,2020-09-16
6411,Sold,Kr1pt0x,Michel_M…,1Ξ ($351),"Sep 06, 2020",1,351,2020-09-06
6411,Sold,antunes_…,Kr1pt0x,0.67Ξ ($162),"Mar 07, 2020",0.67,162,2020-03-07
6411,Sold,0x00d7c9,antunes_…,0.30Ξ ($52),"Sep 28, 2019",0.3,52,2019-09-28
6412,Sold,0xff2854,0x289a0e,"23Ξ ($41,375)","Mar 21, 2021",23,41375,2021-03-21
6412,Sold,0x701f37,0xff2854,"19.50Ξ ($34,688)","Mar 11, 2021",19.5,34688,2021-03-11
6412,Sold,NeonNFT,flipper_,"3.50Ξ ($1,339)","Nov 03, 2020",3.5,1339,2020-11-03
6412,Sold,Hemba,NeonNFT,"3Ξ ($1,051)","Sep 25, 2020",3,1051,2020-09-25
6414,Sold,3734815,11909198,"20Ξ ($39,185)","Feb 20, 2021",20,39185,2021-02-20
6414,Sold,328685,3734815,"17Ξ ($30,755)","Feb 14, 2021",17,30755,2021-02-14
6414,Sold,5966219,328685,"10Ξ ($17,470)","Feb 05, 2021",10,17470,2021-02-05
6415,Sold,jmg,CryptoPu…,0.40Ξ ($60),"Jan 03, 2019",0.4,60,2019-01-03
6415,Sold,0xf138eb,0x00bd3a,0.30Ξ ($85),"Jul 02, 2017",0.3,85,2017-07-02
6417,Sold,55241,15809095,0.10Ξ ($83),"Feb 04, 2018",0.1,83,2018-02-04
6419,Sold,0x1d45f1,0xba19ba,"58Ξ ($102,915)","Mar 15, 2021",58,102915,2021-03-15
6419,Sold,Carlini8,CPyrc,4Ξ ($803),"May 26, 2020",4,803,2020-05-26
6419,Sold,0xe45df5,Carlini8,1.99Ξ ($253),"Jan 03, 2020",1.99,253,2020-01-03
6420,Sold,Ambrose,GtC,1.50Ξ ($191),"Dec 21, 2019",1.5,191,2019-12-21
6420,Sold,0xe45df5,Ambrose,1.30Ξ ($214),"Apr 13, 2019",1.3,214,2019-04-13
6421,Sold,0xc9a3fc,0x0b8785,"22.40Ξ ($34,086)","Mar 01, 2021",22.4,34086,2021-03-01
6421,Sold,0x13816f,0x327b5d,"18.88Ξ ($37,249)","Feb 21, 2021",18.88,37249,2021-02-21
6421,Sold,CPyrc,0x13816f,"4.72Ξ ($1,696)","Sep 28, 2020",4.72,1696,2020-09-28
6421,Sold,0x067034,CPyrc,"4.25Ξ ($1,521)","Sep 28, 2020",4.25,1521,2020-09-28
6421,Sold,Pranksy,0x067034,1.78Ξ ($665),"Sep 20, 2020",1.78,665,2020-09-20
6421,Sold,juggerna…,alxo,0.25Ξ ($38),"Nov 23, 2019",0.25,38,2019-11-23
6423,Sold,0xc69ae4,0x25dd15,"3.80Ξ ($1,365)","Sep 28, 2020",3.8,1365,2020-09-28
6423,Sold,satman,0xc69ae4,1.20Ξ ($246),"May 25, 2020",1.2,246,2020-05-25
6423,Sold,Pranksy,satman,0.55Ξ ($107),"Mar 09, 2020",0.55,107,2020-03-09
6423,Sold,0x00d7c9,Pranksy,0.25Ξ ($52),"Aug 13, 2019",0.25,52,2019-08-13
6424,Sold,0x19ac60,0xa6e1ea,"5.69Ξ ($9,169)","Feb 08, 2021",5.69,9169,2021-02-08
6425,Sold,0x00d7c9,jmg,0.50Ξ ($88),"Apr 07, 2019",0.5,88,2019-04-07
6426,Sold,48543,7823584,0.35Ξ ($94),"Jul 04, 2017",0.35,94,2017-07-04
6431,Sold,beautifu…,0x2ab173,"21.99Ξ ($32,585)","Mar 05, 2021",21.99,32585,2021-03-05
6431,Sold,0x5f5df4,beautifu…,"28.99Ξ ($42,518)","Feb 26, 2021",28.99,42518,2021-02-26
6433,Sold,55241,Kenney,0.10Ξ ($105),"Jan 16, 2018",0.1,105,2018-01-16
6435,Sold,0x00d7c9,PB,0.45Ξ ($78),"Apr 20, 2019",0.45,78,2019-04-20
6437,Sold,13401139,Zonked,"12.64Ξ ($21,027)","Feb 04, 2021",12.64,21027,2021-02-04
6439,Sold,PabloFM,0x3f1724,0.58Ξ ($157),"Feb 23, 2020",0.58,157,2020-02-23
6439,Sold,0xccc230,PabloFM,0.20Ξ ($38),"Oct 11, 2018",0.2,38,2018-10-11
6442,Sold,55241,Kenney,0.10Ξ ($58),"May 25, 2018",0.1,58,2018-05-25
6444,Sold,Pranksy,BlackKet…,0.50Ξ ($64),"Jan 01, 2020",0.5,64,2020-01-01
6444,Sold,0x00d7c9,Pranksy,0.25Ξ ($45),"Sep 02, 2019",0.25,45,2019-09-02
6445,Sold,treetop,Catdog,0.59Ξ ($117),"May 14, 2020",0.59,117,2020-05-14
6445,Sold,TokyoBas…,treetop,0.50Ξ ($77),"Apr 13, 2020",0.5,77,2020-04-13
6446,Sold,0x5b098b,45688,0.34Ξ ($91),"Jul 04, 2017",0.34,91,2017-07-04
6451,Sold,jmg,0x7f3560,2.25Ξ ($370),"Jan 19, 2020",2.25,370,2020-01-19
6451,Sold,0xcbd482,0x00bd3a,0.30Ξ ($81),"Jul 04, 2017",0.3,81,2017-07-04
6452,Sold,heeee.et…,0xa12235,"9.98Ξ ($18,150)","Feb 17, 2021",9.98,18150,2021-02-17
6452,Sold,0xe754d1,gaus,2.75Ξ ($949),"Sep 25, 2020",2.75,949,2020-09-25
6452,Sold,Pranksy,0xe754d1,1.90Ξ ($716),"Sep 14, 2020",1.9,716,2020-09-14
6452,Sold,juggerna…,alxo,0.25Ξ ($38),"Nov 23, 2019",0.25,38,2019-11-23
6453,Sold,9098894,1665597,2Ξ ($775),"Sep 13, 2020",2,775,2020-09-13
6453,Sold,6827056,9098894,0.49Ξ ($110),"Jul 24, 2017",0.49,110,2017-07-24
6454,Sold,6827056,45688,0.39Ξ ($94),"Jul 07, 2017",0.39,94,2017-07-07
6457,Sold,0xf9728b,0xaae8c5,"4Ξ ($2,576)","Dec 26, 2020",4,2576,2020-12-26
6457,Sold,0xe754d1,0xf9728b,"2.90Ξ ($1,029)","Sep 26, 2020",2.9,1029,2020-09-26
6457,Sold,Pranksy,0xe754d1,1.90Ξ ($716),"Sep 14, 2020",1.9,716,2020-09-14
6457,Sold,juggerna…,alxo,0.25Ξ ($38),"Nov 23, 2019",0.25,38,2019-11-23
6458,Sold,curating…,DANNY,"9Ξ ($4,193)","Nov 17, 2020",9,4193,2020-11-17
6459,Sold,0x33eaae,2855716,"13Ξ ($17,305)","Jan 19, 2021",13,17305,2021-01-19
6461,Sold,16033653,4612581,"20Ξ ($39,369)","Apr 07, 2021",20,39369,2021-04-07
6461,Sold,55241,16033653,0.10Ξ ($47),"Dec 04, 2017",0.1,47,2017-12-04
6462,Sold,_K_A_M_I…,j1mmy,1.85Ξ ($375),"May 27, 2020",1.85,375,2020-05-27
6462,Sold,natealex,_K_A_M_I…,1.59Ξ ($324),"May 26, 2020",1.59,324,2020-05-26
6462,Sold,juggerna…,natealex,1.35Ξ ($276),"May 24, 2020",1.35,276,2020-05-24
6466,Sold,0x787b92,TokenAng…,"106Ξ ($181,677)","Mar 08, 2021",106,181677,2021-03-08
6468,Sold,TheNat,0xe9e7b8,"10.75Ξ ($19,748)","Feb 14, 2021",10.75,19748,2021-02-14
6468,Sold,0xbfa319,TheNat,"6.74Ξ ($2,372)","Sep 27, 2020",6.74,2372,2020-09-27
6468,Sold,juggerna…,0xbfa319,0.44Ξ ($81),"Nov 17, 2019",0.44,81,2019-11-17
6469,Sold,2367319,12362447,"30Ξ ($53,912)","Mar 21, 2021",30,53912,2021-03-21
6469,Sold,11004839,2367319,"7Ξ ($9,390)","Jan 24, 2021",7,9390,2021-01-24
6470,Sold,Kataster…,Deeze,"23.98Ξ ($49,869)","Apr 09, 2021",23.98,49869,2021-04-09
6470,Sold,Goop,Kataster…,0.37Ξ ($56),"Dec 08, 2019",0.37,56,2019-12-08
6470,Sold,0x581b59,Goop,0.36Ξ ($52),"Dec 04, 2019",0.36,52,2019-12-04
6470,Sold,0x00d7c9,0x61e7e7,0.50Ξ ($123),"Jun 11, 2019",0.5,123,2019-06-11
6480,Sold,0x6b3db0,0x98c488,1Ξ ($205),"May 24, 2020",1,205,2020-05-24
6480,Sold,0x5a2598,0x6b3db0,0.50Ξ ($93),"Nov 09, 2019",0.5,93,2019-11-09
6480,Sold,juggerna…,0x5a2598,0.30Ξ ($55),"Nov 02, 2019",0.3,55,2019-11-02
6483,Sold,0x870a9d,Berndtlz,0.60Ξ ($173),"Jul 10, 2019",0.6,173,2019-07-10
6483,Sold,0xa7eba7,0x870a9d,0.44Ξ ($118),"Jul 04, 2017",0.44,118,2017-07-04
6485,Sold,0x0553de,tencent,"3.50Ξ ($1,875)","Nov 21, 2020",3.5,1875,2020-11-21
6485,Sold,NeonNFT,0x0553de,"4.25Ξ ($1,750)","Oct 22, 2020",4.25,1750,2020-10-22
6485,Sold,0x00d7c9,KittyGr_…,0.05Ξ ($30),"Jun 08, 2018",0.05,30,2018-06-08
6486,Sold,Zieg,0x55afb7,0.36Ξ ($97),"Aug 22, 2018",0.36,97,2018-08-22
6486,Sold,0x58164b,Zieg,"4.50Ξ ($1,010)","Aug 03, 2017",4.5,1010,2017-08-03
6486,Sold,Zieg,0x58164b,"4.50Ξ ($1,010)","Aug 03, 2017",4.5,1010,2017-08-03
6487,Sold,0x1da533,0x561786,550Ξ ($1.05M),"Feb 22, 2021",550,1050000,2021-02-22
6487,Sold,0xf1ad94,DANNY,"100Ξ ($20,857)","May 24, 2020",100,20857,2020-05-24
6490,Sold,Hemba,sov,0.20Ξ ($95),"Nov 27, 2017",0.2,95,2017-11-27
6492,Sold,Goop,cpu1,0.68Ξ ($129),"May 11, 2020",0.68,129,2020-05-11
6492,Sold,0x6611fe,Goop,0.55Ξ ($78),"Jan 08, 2020",0.55,78,2020-01-08
6493,Sold,👱‍♀.eth,0x4affe1,"26Ξ ($47,377)","Mar 19, 2021",26,47377,2021-03-19
6493,Sold,0x1672db,👱‍♀.eth,"22Ξ ($39,380)","Mar 15, 2021",22,39380,2021-03-15
6494,Sold,0x7d705d,Kataster…,0.99Ξ ($223),"Feb 09, 2020",0.99,223,2020-02-09
6494,Sold,0x000c1c…,0x7d705d,0.60Ξ ($80),"Jan 04, 2020",0.6,80,2020-01-04
6497,Sold,0x000c1c…,Pixls,0.50Ξ ($66),"Dec 31, 2019",0.5,66,2019-12-31
6498,Sold,EliteCat…,0x024bcb,"43Ξ ($80,352)","Mar 10, 2021",43,80352,2021-03-10
6498,Sold,Alley,GoWest23,1Ξ ($130),"Jan 01, 2020",1,130,2020-01-01
6498,Sold,0x000c1c…,Sylveste…,0.50Ξ ($82),"May 04, 2019",0.5,82,2019-05-04
6500,Sold,0x82f3d9,Zonked,"2.50Ξ ($1,373)","Dec 11, 2020",2.5,1373,2020-12-11
6500,Sold,jmg,0x82f3d9,0.19Ξ ($258),"Jan 14, 2018",0.19,258,2018-01-14
6500,Sold,0x58164b,jmg,0.06Ξ ($67),"Jan 07, 2018",0.06,67,2018-01-07
6501,Sold,13275108,11234466,"25.50Ξ ($35,675)","Feb 28, 2021",25.5,35675,2021-02-28
6503,Sold,0x24ee78,so_long_…,"5Ξ ($1,895)","Oct 13, 2020",5,1895,2020-10-13
6503,Sold,0x067034,0x24ee78,"2.85Ξ ($1,008)","Sep 26, 2020",2.85,1008,2020-09-26
6503,Sold,Pranksy,0x067034,1.78Ξ ($665),"Sep 20, 2020",1.78,665,2020-09-20
6503,Sold,CPyrc,Pranksy,1.69Ξ ($637),"Sep 14, 2020",1.69,637,2020-09-14
6503,Sold,0x6b3db0,CPyrc,1Ξ ($208),"May 22, 2020",1,208,2020-05-22
6503,Sold,juggerna…,0x6b3db0,0.25Ξ ($46),"Nov 09, 2019",0.25,46,2019-11-09
6504,Sold,Hemba,0x28784d,0.16Ξ ($218),"Jan 14, 2018",0.16,218,2018-01-14
6504,Sold,0x682c30,Hemba,0.27Ξ ($72),"Jul 05, 2017",0.27,72,2017-07-05
6506,Sold,EliteCat…,0xd41d35,"17Ξ ($25,818)","Mar 05, 2021",17,25818,2021-03-05
6506,Sold,Hemba,GoWest23,0.45Ξ ($78),"May 06, 2019",0.45,78,2019-05-06
6507,Sold,7293485,10937755,"6.05Ξ ($11,238)","Feb 13, 2021",6.05,11238,2021-02-13
6508,Sold,9555364,15840437,"26.25Ξ ($54,177)","Apr 08, 2021",26.25,54177,2021-04-08
6508,Sold,7293485,9555364,"8.75Ξ ($15,951)","Feb 15, 2021",8.75,15951,2021-02-15
6509,Sold,349150,4128395,"23.98Ξ ($34,726)","Feb 27, 2021",23.98,34726,2021-02-27
6509,Sold,7293485,349150,"18.88Ξ ($37,249)","Feb 21, 2021",18.88,37249,2021-02-21
6510,Sold,0x00d7c9,Pixls,0.30Ξ ($66),"Jul 19, 2019",0.3,66,2019-07-19
6512,Sold,13275108,tonyherr…,"8.50Ξ ($15,375)","Feb 14, 2021",8.5,15375,2021-02-14
6514,Sold,MrNFT,0x568cf5,"5.88Ξ ($2,138)","Sep 28, 2020",5.88,2138,2020-09-28
6514,Sold,GoWest23,MrNFT,"4.85Ξ ($1,764)","Sep 28, 2020",4.85,1764,2020-09-28
6514,Sold,0x0af8cc,GoWest23,0.30Ξ ($52),"May 06, 2019",0.3,52,2019-05-06
6514,Sold,0x00d7c9,0x0af8cc,0.05Ξ ($30),"Jun 07, 2018",0.05,30,2018-06-07
6516,Sold,0x86f391,jmg,"24.99Ξ ($46,618)","Mar 14, 2021",24.99,46618,2021-03-14
6516,Sold,0xd8cb8f,0x86f391,"25.91Ξ ($35,608)","Feb 28, 2021",25.91,35608,2021-02-28
6516,Sold,0xf1b658,0xd8cb8f,"23Ξ ($37,824)","Feb 24, 2021",23,37824,2021-02-24
6516,Sold,Loopify,0xf1b658,"20Ξ ($39,458)","Feb 21, 2021",20,39458,2021-02-21
6516,Sold,0x796c85,Loopify,"14.85Ξ ($28,892)","Feb 19, 2021",14.85,28892,2021-02-19
6516,Sold,GtC,0x796c85,"12Ξ ($21,369)","Feb 15, 2021",12,21369,2021-02-15
6516,Sold,0x00d7c9,GtC,0.25Ξ ($45),"Sep 03, 2019",0.25,45,2019-09-03
6518,Sold,3699717,5734076,"21.47Ξ ($38,429)","Mar 21, 2021",21.47,38429,2021-03-21
6519,Sold,13275108,tonyherr…,"8Ξ ($10,594)","Jan 27, 2021",8,10594,2021-01-27
6522,Sold,Pranksy,0x101059,"22Ξ ($41,671)","Feb 21, 2021",22,41671,2021-02-21
6522,Sold,0x3dee68,Pranksy,"11Ξ ($15,757)","Feb 02, 2021",11,15757,2021-02-02
6522,Sold,Novo311,0x3dee68,"7.77Ξ ($9,623)","Jan 23, 2021",7.77,9623,2021-01-23
6522,Sold,satman,Novo311,"6.50Ξ ($4,010)","Dec 25, 2020",6.5,4010,2020-12-25
6522,Sold,2pac,6373D,"3Ξ ($1,755)","Dec 14, 2020",3,1755,2020-12-14
6522,Sold,VonMises,0x257e2b,"9.10Ξ ($3,106)","Oct 07, 2020",9.1,3106,2020-10-07
6522,Sold,Pranksy,VonMises,1.50Ξ ($320),"May 18, 2020",1.5,320,2020-05-18
6522,Sold,0x682c30,Pranksy,0.99Ξ ($134),"Jan 05, 2020",0.99,134,2020-01-05
6523,Sold,0x62bdc6,0x48d0f0,"16.50Ξ ($31,864)","Mar 31, 2021",16.5,31864,2021-03-31
6523,Sold,0x5aaeb9,CryptoEa…,2.80Ξ ($977),"Sep 25, 2020",2.8,977,2020-09-25
6523,Sold,0x73710b,0x5aaeb9,2.40Ξ ($831),"Sep 24, 2020",2.4,831,2020-09-24
6523,Sold,cryptoke…,0x73710b,1.99Ξ ($766),"Sep 19, 2020",1.99,766,2020-09-19
6523,Sold,0x9ce03d,cryptoke…,1.70Ξ ($644),"Sep 18, 2020",1.7,644,2020-09-18
6523,Sold,Pranksy,0x9ce03d,1.88Ξ ($722),"Sep 18, 2020",1.88,722,2020-09-18
6523,Sold,Pixls,evkort,2Ξ ($718),"Sep 13, 2020",2,718,2020-09-13
6523,Sold,0xf0f068…,Pixls,0.96Ξ ($154),"Jan 23, 2020",0.96,154,2020-01-23
6523,Sold,GtC,0xf0f068…,0.90Ξ ($146),"Jan 23, 2020",0.9,146,2020-01-23
6523,Sold,0xf0f068…,GtC,0.84Ξ ($142),"Jan 17, 2020",0.84,142,2020-01-17
6523,Sold,Pixls,0xf0f068…,0.60Ξ ($85),"Jan 07, 2020",0.6,85,2020-01-07
6523,Sold,0x00d7c9,Pixls,0.45Ξ ($79),"Apr 07, 2019",0.45,79,2019-04-07
6524,Sold,0x0a4eaf…,0x00b278,0.38Ξ ($92),"Jul 07, 2017",0.38,92,2017-07-07
6524,Sold,0x682c30,0x5b098b,0.25Ξ ($66),"Jul 05, 2017",0.25,66,2017-07-05
6527,Sold,0x00d7c9,CyrusOld,0.05Ξ ($29),"Jun 01, 2018",0.05,29,2018-06-01
6528,Sold,Pranksy,0x1b7646,2.50Ξ ($418),"Jan 21, 2020",2.5,418,2020-01-21
6528,Sold,0x00d7c9,Pranksy,0.40Ξ ($118),"Jun 21, 2019",0.4,118,2019-06-21
6530,Sold,shilpixe…,0x621f2a,"35Ξ ($74,789)","Apr 12, 2021",35,74789,2021-04-12
6531,Sold,0xadc229,0xddfdcb,"25Ξ ($49,323)","Feb 21, 2021",25,49323,2021-02-21
6531,Sold,0xf2565f,0xadc229,"9Ξ ($12,493)","Jan 30, 2021",9,12493,2021-01-30
6531,Sold,0x95318b,0xf2565f,"5.55Ξ ($6,943)","Jan 23, 2021",5.55,6943,2021-01-23
6531,Sold,0x392f89,0x95318b,"5.50Ξ ($2,637)","Nov 17, 2020",5.5,2637,2020-11-17
6531,Sold,Alex3422,0x392f89,"7.99Ξ ($2,827)","Sep 29, 2020",7.99,2827,2020-09-29
6531,Sold,GoWest23,Alex3422,"6.95Ξ ($2,524)","Sep 28, 2020",6.95,2524,2020-09-28
6531,Sold,0x87e225,GoWest23,0.49Ξ ($85),"May 06, 2019",0.49,85,2019-05-06
6531,Sold,Cyborg,0x87e225,0.28Ξ ($42),"Jan 08, 2019",0.28,42,2019-01-08
6531,Sold,0x00d7c9,Cyborg,0.10Ξ ($30),"Oct 26, 2017",0.1,30,2017-10-26
6532,Sold,0x58164b,0x717403,0.05Ξ ($56),"Jan 07, 2018",0.05,56,2018-01-07
6532,Sold,shilpixe…,0x58164b,1.50Ξ ($292),"Jul 19, 2017",1.5,292,2017-07-19
6535,Sold,Theodora,0x5bb4ff,"21.92Ξ ($41,790)","Feb 21, 2021",21.92,41790,2021-02-21
6535,Sold,0x3a8441,Theodora,0.90Ξ ($317),"Sep 09, 2020",0.9,317,2020-09-09
6536,Sold,charley,0xbd19b1,"9.99Ξ ($18,191)","Feb 16, 2021",9.99,18191,2021-02-16
6536,Sold,0x4aa6a3,charley,"3Ξ ($1,790)","Nov 23, 2020",3,1790,2020-11-23
6536,Sold,Zieg,antunes_…,"5.90Ξ ($2,096)","Sep 30, 2020",5.9,2096,2020-09-30
6536,Sold,Slider92,Zieg,"3.30Ξ ($1,163)","Sep 27, 2020",3.3,1163,2020-09-27
6536,Sold,cryptosa…,Slider92,0.76Ξ ($357),"Sep 01, 2020",0.76,357,2020-09-01
6536,Sold,0x6b3db0,cryptosa…,1Ξ ($208),"May 22, 2020",1,208,2020-05-22
6536,Sold,juggerna…,0x6b3db0,0.30Ξ ($55),"Nov 02, 2019",0.3,55,2019-11-02
6543,Sold,Thing,Dude_Nak…,"11.95Ξ ($3,896)","Sep 24, 2020",11.95,3896,2020-09-24
6543,Sold,Dude_Nak…,Thing,4.70Ξ ($959),"May 26, 2020",4.7,959,2020-05-26
6543,Sold,0x58164b,Dude_Nak…,0.10Ξ ($62),"Apr 22, 2018",0.1,62,2018-04-22
6544,Sold,0x491be7,0xca37d8,"28.50Ξ ($55,684)","Feb 21, 2021",28.5,55684,2021-02-21
6544,Sold,Lmao,0x491be7,"4.45Ξ ($1,684)","Oct 20, 2020",4.45,1684,2020-10-20
6544,Sold,Michel_M…,Lmao,"6.25Ξ ($2,197)","Oct 05, 2020",6.25,2197,2020-10-05
6544,Sold,NFTinTin,Michel_M…,1.84Ξ ($419),"Jun 21, 2020",1.84,419,2020-06-21
6544,Sold,ark1,NFTinTin,0.38Ξ ($46),"Dec 17, 2019",0.38,46,2019-12-17
6544,Sold,0x00d7c9,ark1,0.25Ξ ($47),"Sep 15, 2019",0.25,47,2019-09-15
6545,Sold,0x494508,0x27c79a,"21.95Ξ ($39,128)","Mar 17, 2021",21.95,39128,2021-03-17
6545,Sold,0x380236,0x494508,"23Ξ ($41,612)","Mar 16, 2021",23,41612,2021-03-16
6545,Sold,0x1a1f01,0x380236,"20.99Ξ ($37,930)","Mar 16, 2021",20.99,37930,2021-03-16
6545,Sold,0x66f224,0x1a1f01,"13.49Ξ ($26,121)","Feb 18, 2021",13.49,26121,2021-02-18
6545,Sold,0xd3e2e7,0x66f224,"10.70Ξ ($19,460)","Feb 17, 2021",10.7,19460,2021-02-17
6545,Sold,ross_VRO…,0xd3e2e7,"4.90Ξ ($8,252)","Feb 06, 2021",4.9,8252,2021-02-06
6545,Sold,0x5b098b,ross_VRO…,"4.35Ξ ($5,381)","Jan 27, 2021",4.35,5381,2021-01-27
6546,Sold,0x09d408,0xf1b658,"8Ξ ($13,783)","Feb 11, 2021",8,13783,2021-02-11
6546,Sold,0x7f3560,0x09d408,"7.77Ξ ($9,849)","Jan 27, 2021",7.77,9849,2021-01-27
6546,Sold,ark1,0x7f3560,0.39Ξ ($48),"Dec 17, 2019",0.39,48,2019-12-17
6546,Sold,0x00d7c9,ark1,0.25Ξ ($47),"Sep 15, 2019",0.25,47,2019-09-15
6548,Sold,0x00bd3a,45688,0.49Ξ ($135),"Jul 03, 2017",0.49,135,2017-07-03
6548,Sold,0x5b098b,48442,0.03Ξ ($10),"Jun 23, 2017",0.03,10,2017-06-23
6549,Sold,161055,14650138,0.20Ξ ($57),"Jun 27, 2017",0.2,57,2017-06-27
6550,Sold,0x491be7,0xfc2a61,"19.70Ξ ($38,490)","Feb 21, 2021",19.7,38490,2021-02-21
6550,Sold,0x988860,0x491be7,"6.16Ξ ($2,172)","Sep 29, 2020",6.16,2172,2020-09-29
6550,Sold,oref,0x988860,"2.90Ξ ($1,098)","Sep 18, 2020",2.9,1098,2020-09-18
6550,Sold,MrTpunks,oref,2.50Ξ ($941),"Sep 15, 2020",2.5,941,2020-09-15
6550,Sold,0x4c1bd9…,0x1f8add,1.19Ξ ($254),"May 20, 2020",1.19,254,2020-05-20
6550,Sold,0xf5099e,0x4c1bd9…,0.65Ξ ($159),"May 17, 2019",0.65,159,2019-05-17
6550,Sold,0x02751f,0xa0a59c,0.60Ξ ($118),"Jul 30, 2017",0.6,118,2017-07-30
6552,Sold,0x0a4eaf…,0x78b58e,"59Ξ ($125,962)","Apr 11, 2021",59,125962,2021-04-11
6552,Sold,0x8234be,0x0a4eaf…,0.05Ξ ($15),"Sep 30, 2017",0.05,15,2017-09-30
6553,Sold,5734076,8844177,"24.99Ξ ($43,609)","Mar 16, 2021",24.99,43609,2021-03-16
6554,Sold,55241,7435267,0.05Ξ ($26),"May 28, 2018",0.05,26,2018-05-28
6555,Sold,0x13816f,0x658fe4,"24.88Ξ ($38,252)","Mar 04, 2021",24.88,38252,2021-03-04
6555,Sold,undefine…,0x13816f,"4Ξ ($1,433)","Sep 28, 2020",4,1433,2020-09-28
6555,Sold,0x11c9a7,undefine…,2.07Ξ ($801),"Sep 18, 2020",2.07,801,2020-09-18
6555,Sold,MrNFT,0x11c9a7,1.85Ξ ($696),"Sep 15, 2020",1.85,696,2020-09-15
6555,Sold,Pranksy,MrNFT,1.40Ξ ($527),"Sep 14, 2020",1.4,527,2020-09-14
6555,Sold,Shrugs,Pranksy,1.42Ξ ($525),"Sep 11, 2020",1.42,525,2020-09-11
6555,Sold,0x0b30fd,Shrugs,0.29Ξ ($82),"Aug 15, 2018",0.29,82,2018-08-15
6557,Sold,VonMises,0x6f0e05,"4.99Ξ ($1,873)","Sep 15, 2020",4.99,1873,2020-09-15
6557,Sold,Dude_Nak…,VonMises,"2.95Ξ ($1,092)","Sep 10, 2020",2.95,1092,2020-09-10
6557,Sold,Thing,Dude_Nak…,1.30Ξ ($345),"Feb 12, 2020",1.3,345,2020-02-12
6557,Sold,Dude_Nak…,0xde7460,0.66Ξ ($110),"Sep 24, 2019",0.66,110,2019-09-24
6557,Sold,0x00d7c9,Dude_Nak…,0.35Ξ ($61),"Apr 20, 2019",0.35,61,2019-04-20
6558,Sold,0x00d7c9,0xa80be8…,0.12Ξ ($83),"Dec 30, 2017",0.12,83,2017-12-30
6564,Sold,55241,Kenney,0.10Ξ ($59),"May 26, 2018",0.1,59,2018-05-26
6568,Sold,0xca8fe4,4069370,"20Ξ ($36,569)","Feb 14, 2021",20,36569,2021-02-14
6571,Sold,Pranksy,0x0713a6,1.29Ξ ($275),"May 07, 2020",1.29,275,2020-05-07
6571,Sold,0x00d7c9,Pranksy,0.25Ξ ($45),"Sep 02, 2019",0.25,45,2019-09-02
6572,Sold,0x27c79a,stazie,0.50Ξ ($95),"Apr 23, 2020",0.5,95,2020-04-23
6572,Sold,Goop,0x27c79a,0.48Ξ ($69),"Jan 07, 2020",0.48,69,2020-01-07
6572,Sold,0x87e225,Goop,0.38Ξ ($51),"Dec 30, 2019",0.38,51,2019-12-30
6572,Sold,0x00d7c9,0x87e225,0.25Ξ ($53),"Aug 12, 2019",0.25,53,2019-08-12
6573,Sold,Gmugr,0x2978f0,"20.90Ξ ($45,164)","Apr 10, 2021",20.9,45164,2021-04-10
6573,Sold,0x5b331e,Gmugr,"13.75Ξ ($26,471)","Feb 18, 2021",13.75,26471,2021-02-18
6573,Sold,Davicio,0xf1b658,"9.49Ξ ($17,124)","Feb 14, 2021",9.49,17124,2021-02-14
6573,Sold,natealex,Davicio,1.64Ξ ($334),"May 27, 2020",1.64,334,2020-05-27
6573,Sold,juggerna…,natealex,1.35Ξ ($276),"May 24, 2020",1.35,276,2020-05-24
6575,Sold,Zieg,Snowfro,2Ξ ($268),"Mar 25, 2019",2,268,2019-03-25
6576,Sold,0x3d826e,district…,"6Ξ ($4,392)","Dec 29, 2020",6,4392,2020-12-29
6576,Sold,0x00d7c9,0x3d826e,0.25Ξ ($179),"Dec 28, 2017",0.25,179,2017-12-28
6577,Sold,Pranksy,Pixls,0.80Ξ ($104),"Dec 31, 2019",0.8,104,2019-12-31
6577,Sold,0x00d7c9,Pranksy,0.25Ξ ($45),"Sep 02, 2019",0.25,45,2019-09-02
6579,Sold,55241,Pixls,0.40Ξ ($115),"Jul 06, 2019",0.4,115,2019-07-06
6580,Sold,0x0d7794,0x7989e7,"22Ξ ($45,374)","Apr 09, 2021",22,45374,2021-04-09
6580,Sold,0x0a4eaf…,mayweall…,"5.27Ξ ($3,819)","Dec 29, 2020",5.27,3819,2020-12-29
6580,Sold,ross_VRO…,0x0a4eaf…,0.59Ξ ($100),"Jan 17, 2020",0.59,100,2020-01-17
6580,Sold,TweetyPi…,ross_VRO…,0.42Ξ ($55),"Jan 01, 2020",0.42,55,2020-01-01
6580,Sold,ark1,TweetyPi…,0.30Ξ ($38),"Dec 21, 2019",0.3,38,2019-12-21
6580,Sold,0x00d7c9,ark1,0.25Ξ ($47),"Sep 15, 2019",0.25,47,2019-09-15
6581,Sold,0x7e5280,0x4c1bd9…,3Ξ ($702),"May 18, 2019",3,702,2019-05-18
6581,Sold,Zieg,0xd27e3f,1.40Ξ ($289),"Jul 29, 2017",1.4,289,2017-07-29
6583,Sold,EliteCat…,0x3e17fa,"26.50Ξ ($50,684)","Feb 18, 2021",26.5,50684,2021-02-18
6583,Sold,TweetyPi…,GoWest23,0.78Ξ ($126),"Jan 16, 2020",0.78,126,2020-01-16
6583,Sold,Pranksy,TweetyPi…,0.52Ξ ($70),"Jan 04, 2020",0.52,70,2020-01-04
6583,Sold,0x00d7c9,Pranksy,0.25Ξ ($45),"Sep 02, 2019",0.25,45,2019-09-02
6584,Sold,0xc9f203,3641651,"15.50Ξ ($30,371)","Apr 07, 2021",15.5,30371,2021-04-07
6584,Sold,0x8234be,13234691,0.09Ξ ($45),"Apr 14, 2018",0.09,45,2018-04-14
6585,Sold,0x0a4eaf…,digitalo…,"4.17Ξ ($4,787)","Jan 22, 2021",4.17,4787,2021-01-22
6585,Sold,juggerna…,0x0a4eaf…,0.30Ξ ($56),"Nov 07, 2019",0.3,56,2019-11-07
6587,Sold,55241,3623889,0.50Ξ ($123),"May 23, 2019",0.5,123,2019-05-23
6588,Sold,bolaand,0x0d7794,"13Ξ ($24,870)","Feb 18, 2021",13,24870,2021-02-18
6588,Sold,CPyrc,TweetyPi…,"5.99Ξ ($2,076)","Oct 04, 2020",5.99,2076,2020-10-04
6588,Sold,ross_VRO…,CPyrc,"5.55Ξ ($1,937)","Oct 03, 2020",5.55,1937,2020-10-03
6588,Sold,juggerna…,ross_VRO…,1.30Ξ ($266),"May 24, 2020",1.3,266,2020-05-24
6591,Sold,755965,12550288,"19.75Ξ ($42,202)","Apr 12, 2021",19.75,42202,2021-04-12
6592,Sold,0x4dcaf3,13053754,0.75Ξ ($114),"Jan 07, 2019",0.75,114,2019-01-07
6592,Sold,0x6611fe,5098227,0.48Ξ ($128),"Jul 06, 2017",0.48,128,2017-07-06
6593,Sold,0x58164b,Kenney,0.06Ξ ($45),"May 07, 2018",0.06,45,2018-05-07
6594,Sold,0x1a96af,duane.et…,1.82Ξ ($374),"May 24, 2020",1.82,374,2020-05-24
6594,Sold,0xf138eb,0x677b43,0.24Ξ ($68),"Jul 02, 2017",0.24,68,2017-07-02
6595,Sold,3365919,6800451,"17Ξ ($33,179)","Feb 21, 2021",17,33179,2021-02-21
6595,Sold,5560313,3365919,"13Ξ ($24,728)","Feb 18, 2021",13,24728,2021-02-18
6595,Sold,13275108,5560313,"8.90Ξ ($16,242)","Feb 14, 2021",8.9,16242,2021-02-14
6596,Sold,Hemba,0xb87461,0.65Ξ ($96),"Dec 09, 2019",0.65,96,2019-12-09
6597,Sold,Theodora,jordanly…,"25.22Ξ ($39,698)","Feb 25, 2021",25.22,39698,2021-02-25
6597,Sold,Hemba,Theodora,0.95Ξ ($330),"Sep 06, 2020",0.95,330,2020-09-06
6598,Sold,0x65ba4f,0x16c5d7,"33.30Ξ ($50,895)","Feb 23, 2021",33.3,50895,2021-02-23
6598,Sold,MrTpunks,0x65ba4f,"20Ξ ($37,784)","Feb 18, 2021",20,37784,2021-02-18
6598,Sold,0x4fa27c,MrTpunks,"8Ξ ($3,492)","Nov 07, 2020",8,3492,2020-11-07
6598,Sold,NeonNFT,0x4fa27c,"8Ξ ($2,932)","Oct 16, 2020",8,2932,2020-10-16
6600,Sold,0x58164b,7435267,0.05Ξ ($56),"Jan 07, 2018",0.05,56,2018-01-07
6601,Sold,0x67edd0,0xf3fd33,"20.80Ξ ($44,653)","Apr 11, 2021",20.8,44653,2021-04-11
6601,Sold,Pranksy,0x67edd0,"14.80Ξ ($29,133)","Apr 07, 2021",14.8,29133,2021-04-07
6601,Sold,0xca1585,Pranksy,"24Ξ ($43,397)","Mar 12, 2021",24,43397,2021-03-12
6601,Sold,0x727ca3,0xca1585,"15Ξ ($28,533)","Feb 18, 2021",15,28533,2021-02-18
6601,Sold,0x0b30fd,0x727ca3,0.52Ξ ($107),"Jul 10, 2017",0.52,107,2017-07-10
6602,Sold,55241,7435267,0.05Ξ ($26),"May 28, 2018",0.05,26,2018-05-28
6603,Sold,0xd8e806,gr8wxl,0.22Ξ ($66),"Sep 10, 2017",0.22,66,2017-09-10
6603,Sold,Hemba,0xd8e806,0.46Ξ ($94),"Jul 13, 2017",0.46,94,2017-07-13
6605,Sold,0x853d70,0x3ee505,2.50Ξ ($865),"Sep 24, 2020",2.5,865,2020-09-24
6605,Sold,NFTinTin,0x853d70,1.93Ξ ($743),"Sep 18, 2020",1.93,743,2020-09-18
6605,Sold,juggerna…,NFTinTin,0.30Ξ ($55),"Nov 03, 2019",0.3,55,2019-11-03
6608,Sold,0x4b6942,blockwar…,1.50Ξ ($573),"Aug 27, 2020",1.5,573,2020-08-27
6608,Sold,Pranksy,0x4b6942,1.25Ξ ($286),"Jul 02, 2020",1.25,286,2020-07-02
6608,Sold,0x00d7c9,Pranksy,0.40Ξ ($118),"Jun 21, 2019",0.4,118,2019-06-21
6609,Sold,Pranksy,ralxz,0.50Ξ ($64),"Jan 03, 2020",0.5,64,2020-01-03
6609,Sold,0x00d7c9,Pranksy,0.25Ξ ($45),"Sep 02, 2019",0.25,45,2019-09-02
6610,Sold,0x00d7c9,CyrusOld,0.05Ξ ($29),"Jun 01, 2018",0.05,29,2018-06-01
6612,Sold,13275108,digitalo…,"8.50Ξ ($9,400)","Jan 05, 2021",8.5,9400,2021-01-05
6613,Sold,0x338fd1,Deeze,"29.50Ξ ($57,873)","Feb 21, 2021",29.5,57873,2021-02-21
6613,Sold,0xf1b658,0x33c265,"13.50Ξ ($17,628)","Jan 29, 2021",13.5,17628,2021-01-29
6613,Sold,EliteCat…,0x5b331e,"11Ξ ($14,577)","Jan 10, 2021",11,14577,2021-01-10
6613,Sold,0xe45df5,GoWest23,1.80Ξ ($442),"May 23, 2019",1.8,442,2019-05-23
6614,Sold,Loopify,TweetyPi…,"18.80Ξ ($38,860)","Apr 08, 2021",18.8,38860,2021-04-08
6614,Sold,0x753b20,Loopify,"15.25Ξ ($31,522)","Apr 08, 2021",15.25,31522,2021-04-08
6614,Sold,0x0199f4,0x753b20,"15Ξ ($29,785)","Apr 07, 2021",15,29785,2021-04-07
6614,Sold,0xca8fe4,0x38f1df,"8.50Ξ ($15,488)","Feb 15, 2021",8.5,15488,2021-02-15
6615,Sold,grake,0x0713a6,1.30Ξ ($248),"May 10, 2020",1.3,248,2020-05-10
6615,Sold,Hemba,grake,1.20Ξ ($199),"Jan 26, 2020",1.2,199,2020-01-26
6617,Sold,15840856,monopoly…,"26Ξ ($47,697)","Feb 15, 2021",26,47697,2021-02-15
6617,Sold,5734076,0xf1b658,"18.50Ξ ($34,444)","Feb 13, 2021",18.5,34444,2021-02-13
6618,Sold,Pranksy,artofrjm,2.75Ξ ($550),"May 26, 2020",2.75,550,2020-05-26
6618,Sold,0x1a96af,Pranksy,1.52Ξ ($310),"May 26, 2020",1.52,310,2020-05-26
6620,Sold,jmg,0x735506,"7.39Ξ ($5,106)","Dec 29, 2020",7.39,5106,2020-12-29
6620,Sold,KittyGr_…,jmg,"5.50Ξ ($1,941)","Oct 05, 2020",5.5,1941,2020-10-05
6620,Sold,0x00d7c9,KittyGr_…,0.10Ξ ($60),"Jun 08, 2018",0.1,60,2018-06-08
6621,Sold,0xddfdcb,0x5b713f,"27Ξ ($45,149)","Mar 23, 2021",27,45149,2021-03-23
6621,Sold,0x491be7,0xddfdcb,"16.66Ξ ($30,554)","Feb 17, 2021",16.66,30554,2021-02-17
6621,Sold,KittyGr_…,0x491be7,"5.70Ξ ($2,017)","Oct 05, 2020",5.7,2017,2020-10-05
6621,Sold,0x00d7c9,KittyGr_…,0.10Ξ ($60),"Jun 08, 2018",0.1,60,2018-06-08
6622,Sold,0xabf107,13393669,"36Ξ ($57,380)","Mar 24, 2021",36,57380,2021-03-24
6622,Sold,0x577ebc,11268359,"39.99Ξ ($70,889)","Mar 17, 2021",39.99,70889,2021-03-17
6623,Sold,0x62bdc6,0xdcae87,"24.97Ξ ($51,978)","Apr 09, 2021",24.97,51978,2021-04-09
6623,Sold,0x1d45f1,scottrep…,2.70Ξ ($934),"Sep 24, 2020",2.7,934,2020-09-24
6623,Sold,Pranksy,0x1d45f1,2.50Ξ ($925),"Sep 15, 2020",2.5,925,2020-09-15
6623,Sold,Alley,Pranksy,1.95Ξ ($735),"Sep 14, 2020",1.95,735,2020-09-14
6623,Sold,0x00d7c9,Alley,0.30Ξ ($63),"Jul 17, 2019",0.3,63,2019-07-17
6624,Sold,0x13816f,0x5090c4,"14.88Ξ ($28,529)","Feb 20, 2021",14.88,28529,2021-02-20
6624,Sold,0x067034,0x13816f,"3.10Ξ ($1,102)","Sep 27, 2020",3.1,1102,2020-09-27
6624,Sold,Pranksy,0x067034,1.78Ξ ($665),"Sep 20, 2020",1.78,665,2020-09-20
6624,Sold,Pranksy,alxo,0.30Ξ ($56),"Aug 14, 2019",0.3,56,2019-08-14
6624,Sold,0x00d7c9,Pranksy,0.40Ξ ($118),"Jun 21, 2019",0.4,118,2019-06-21
6626,Sold,shilpixe…,moonphas…,"7Ξ ($2,424)","Sep 25, 2020",7,2424,2020-09-25
6626,Sold,VonMises,shilpixe…,2.75Ξ ($638),"May 30, 2020",2.75,638,2020-05-30
6626,Sold,Pranksy,0xaf5e63,1.39Ξ ($295),"May 02, 2020",1.39,295,2020-05-02
6626,Sold,0x00d7c9,Pranksy,0.40Ξ ($118),"Jun 21, 2019",0.4,118,2019-06-21
6626,Sold,0x682c30,0x00d7c9,0.39Ξ ($96),"Jul 08, 2017",0.39,96,2017-07-08
6629,Sold,Pranksy,VonMises,3.25Ξ ($611),"Apr 24, 2020",3.25,611,2020-04-24
6629,Sold,0x61e7e7,Pranksy,2.95Ξ ($407),"Jan 05, 2020",2.95,407,2020-01-05
6629,Sold,jmg,0x581b59,1.95Ξ ($603),"Jun 22, 2019",1.95,603,2019-06-22
6629,Sold,0x5b098b,0x00bd3a,0.45Ξ ($121),"Jul 04, 2017",0.45,121,2017-07-04
6631,Sold,VonMises,0xa910fa,"35Ξ ($66,012)","Mar 15, 2021",35,66012,2021-03-15
6631,Sold,Hemba,0xaf5e63,1.33Ξ ($266),"May 04, 2020",1.33,266,2020-05-04
6637,Sold,0xca8fe4,337252,"17Ξ ($32,687)","Apr 01, 2021",17,32687,2021-04-01
6638,Sold,VonMises,0xabc72d,"13.99Ξ ($6,626)","Nov 18, 2020",13.99,6626,2020-11-18
6638,Sold,antunes_…,VonMises,4Ξ ($833),"May 23, 2020",4,833,2020-05-23
6638,Sold,0x0553de,antunes_…,0.90Ξ ($154),"May 09, 2019",0.9,154,2019-05-09
6638,Sold,0xf5099e,0x0553de,0.75Ξ ($89),"Jan 20, 2019",0.75,89,2019-01-20
6638,Sold,0x8b27de,0xa0a59c,0.28Ξ ($67),"Jul 07, 2017",0.28,67,2017-07-07
6639,Sold,55241,8669529,0.45Ξ ($88),"May 13, 2019",0.45,88,2019-05-13
6640,Sold,55241,3623889,0.70Ξ ($172),"May 23, 2019",0.7,172,2019-05-23
6642,Sold,Thing,Dude_Nak…,"7.85Ξ ($2,812)","Sep 30, 2020",7.85,2812,2020-09-30
6642,Sold,0x5b098b,Thing,"3.61Ξ ($1,301)","Sep 27, 2020",3.61,1301,2020-09-27
6642,Sold,0x071524,0x5b098b,0.10Ξ ($29),"Jun 27, 2017",0.1,29,2017-06-27
6644,Sold,5966219,957165,"21.70Ξ ($46,346)","Apr 11, 2021",21.7,46346,2021-04-11
6649,Sold,Pranksy,0xbe7516,"50.20Ξ ($61,616)","Jan 23, 2021",50.2,61616,2021-01-23
6649,Sold,2pac,0xf1b658,"45Ξ ($53,963)","Jan 18, 2021",45,53963,2021-01-18
6649,Sold,0x3d826e,Pranksy,"36Ξ ($22,875)","Dec 26, 2020",36,22875,2020-12-26
6649,Sold,0x5462de,0x3d826e,1.90Ξ ($529),"Aug 14, 2018",1.9,529,2018-08-14
6650,Sold,16058782,12211849,0.30Ξ ($35),"Nov 25, 2018",0.3,35,2018-11-25
6650,Sold,161055,10528156,0.20Ξ ($39),"Jul 30, 2017",0.2,39,2017-07-30
6653,Sold,15693900,15162117,"39Ξ ($70,746)","Mar 20, 2021",39,70746,2021-03-20
6653,Sold,9933326,15693900,"24.95Ξ ($45,237)","Mar 12, 2021",24.95,45237,2021-03-12
6653,Sold,5734076,9933326,"20.49Ξ ($37,144)","Mar 11, 2021",20.49,37144,2021-03-11
6654,Sold,444.eth,0x6bf62d,"18.90Ξ ($39,053)","Apr 09, 2021",18.9,39053,2021-04-09
6654,Sold,0x5aaeb9,gaus,2.65Ξ ($925),"Sep 25, 2020",2.65,925,2020-09-25
6654,Sold,SharkWha…,0x5aaeb9,2.49Ξ ($862),"Sep 24, 2020",2.49,862,2020-09-24
6654,Sold,ross_VRO…,SharkWha…,1.99Ξ ($758),"Sep 20, 2020",1.99,758,2020-09-20
6654,Sold,CPyrc,ross_VRO…,1.40Ξ ($526),"Sep 14, 2020",1.4,526,2020-09-14
6654,Sold,Pranksy,CPyrc,1.25Ξ ($460),"Sep 11, 2020",1.25,460,2020-09-11
6654,Sold,ChrisR,Pranksy,1.04Ξ ($379),"Sep 11, 2020",1.04,379,2020-09-11
6654,Sold,cryptosa…,Pranksy,0.80Ξ ($162),"May 22, 2020",0.8,162,2020-05-22
6654,Sold,0x1a96af,cryptosa…,0.59Ξ ($125),"May 09, 2020",0.59,125,2020-05-09
6655,Sold,Hemba,0xf40b3d,2.75Ξ ($900),"Sep 24, 2020",2.75,900,2020-09-24
6657,Sold,evkort,0x754fe6,"4.50Ξ ($1,573)","Oct 08, 2020",4.5,1573,2020-10-08
6657,Sold,0xe754d1,evkort,"5Ξ ($1,773)","Sep 29, 2020",5,1773,2020-09-29
6657,Sold,NeonNFT,0xe754d1,"3.40Ξ ($1,219)","Sep 28, 2020",3.4,1219,2020-09-28
6657,Sold,Pranksy,NeonNFT,"2.89Ξ ($1,020)","Sep 27, 2020",2.89,1020,2020-09-27
6657,Sold,Hemba,Pranksy,2.30Ξ ($796),"Sep 24, 2020",2.3,796,2020-09-24
6658,Sold,miamihea…,TokenAng…,"24Ξ ($46,892)","Feb 21, 2021",24,46892,2021-02-21
6658,Sold,0x0af8cc,VonMises,0.55Ξ ($107),"Apr 26, 2020",0.55,107,2020-04-26
6658,Sold,0x00d7c9,0x0af8cc,0.05Ξ ($27),"Jun 11, 2018",0.05,27,2018-06-11
6659,Sold,0xca8fe4,0x62bdc6,"16Ξ ($26,974)","Mar 27, 2021",16,26974,2021-03-27
6660,Sold,12196282,5122632,"14Ξ ($25,839)","Feb 17, 2021",14,25839,2021-02-17
6661,Sold,xvii,0x450638,"50Ξ ($89,976)","Mar 15, 2021",50,89976,2021-03-15
6661,Sold,0x8234be,xvii,0.10Ξ ($45),"Jul 23, 2018",0.1,45,2018-07-23
6662,Sold,j1mmy,Tschuuul…,2.10Ξ ($717),"Sep 23, 2020",2.1,717,2020-09-23
6662,Sold,OnlyToas…,j1mmy,2.08Ξ ($781),"Sep 15, 2020",2.08,781,2020-09-15
6662,Sold,Pranksy,OnlyToas…,1.90Ξ ($709),"Sep 14, 2020",1.9,709,2020-09-14
6662,Sold,natealex,Pranksy,1.66Ξ ($625),"Sep 14, 2020",1.66,625,2020-09-14
6662,Sold,Pranksy,natealex,1.25Ξ ($459),"Sep 11, 2020",1.25,459,2020-09-11
6662,Sold,0x00d7c9,Pranksy,0.40Ξ ($118),"Jun 21, 2019",0.4,118,2019-06-21
6664,Sold,Pranksy,Tschuuul…,0.99Ξ ($200),"May 14, 2020",0.99,200,2020-05-14
6664,Sold,0x00d7c9,Pranksy,0.40Ξ ($118),"Jun 21, 2019",0.4,118,2019-06-21
6665,Sold,Thing,0x4c1bd9…,1.49Ξ ($316),"May 09, 2020",1.49,316,2020-05-09
6665,Sold,Dude_Nak…,Thing,1.49Ξ ($329),"Feb 07, 2020",1.49,329,2020-02-07
6665,Sold,0x58164b,Dude_Nak…,0.12Ξ ($45),"Apr 04, 2018",0.12,45,2018-04-04
6666,Sold,jmg,0x701f37,"79.99Ξ ($122,710)","Feb 02, 2021",79.99,122710,2021-02-02
6666,Sold,0x0cea5b,jmg,0.75Ξ ($567),"Jan 01, 2018",0.75,567,2018-01-01
6669,Sold,Pranksy,0x9c6b51,"22.22Ξ ($47,106)","Apr 05, 2021",22.22,47106,2021-04-05
6669,Sold,renaissa…,Pranksy,"29.50Ξ ($53,342)","Mar 12, 2021",29.5,53342,2021-03-12
6669,Sold,0x84c920,renaissa…,"28Ξ ($45,330)","Mar 03, 2021",28,45330,2021-03-03
6669,Sold,0xe71274,0x84c920,"29Ξ ($38,232)","Feb 28, 2021",29,38232,2021-02-28
6669,Sold,jesterbo…,0xe71274,"23.95Ξ ($46,621)","Feb 21, 2021",23.95,46621,2021-02-21
6671,Sold,Dude_Nak…,0x850b57,2.19Ξ ($834),"Sep 20, 2020",2.19,834,2020-09-20
6671,Sold,0x8234be,Dude_Nak…,0.10Ξ ($54),"Mar 18, 2018",0.1,54,2018-03-18
6672,Sold,0xbca2cf,0x8ed4da,"29.97Ξ ($53,423)","Mar 21, 2021",29.97,53423,2021-03-21
6672,Sold,0x5fd36a,0xbca2cf,"24.90Ξ ($39,631)","Feb 25, 2021",24.9,39631,2021-02-25
6672,Sold,0x0c6295,0x5fd36a,"23Ξ ($37,713)","Feb 24, 2021",23,37713,2021-02-24
6672,Sold,Davicio,0x0c6295,"18.45Ξ ($36,092)","Feb 19, 2021",18.45,36092,2021-02-19
6672,Sold,0x5f18f9,Davicio,"14Ξ ($25,762)","Feb 17, 2021",14,25762,2021-02-17
6672,Sold,0x13816f,curating…,"7.44Ξ ($13,520)","Feb 13, 2021",7.44,13520,2021-02-13
6672,Sold,CPyrc,0x13816f,"5.85Ξ ($2,062)","Sep 29, 2020",5.85,2062,2020-09-29
6672,Sold,Slacktid…,CPyrc,"3Ξ ($1,056)","Sep 27, 2020",3,1056,2020-09-27
6672,Sold,Dude_Nak…,Slacktid…,0.24Ξ ($53),"Oct 04, 2018",0.24,53,2018-10-04
6672,Sold,0x8234be,Dude_Nak…,0.15Ξ ($59),"Mar 31, 2018",0.15,59,2018-03-31
6673,Sold,0x8234be,7435267,0.05Ξ ($15),"Sep 29, 2017",0.05,15,2017-09-29
6674,Sold,6689278,11844417,"68Ξ ($130,418)","Apr 01, 2021",68,130418,2021-04-01
6675,Sold,0xc00c2b,0x0a4eaf…,0.17Ξ ($52),"Aug 13, 2017",0.17,52,2017-08-13
6676,Sold,EliteCat…,0x13816f,"17.50Ξ ($29,145)","Mar 07, 2021",17.5,29145,2021-03-07
6676,Sold,jmg,GoWest23,0.84Ξ ($136),"Jan 16, 2020",0.84,136,2020-01-16
6676,Sold,Pranksy,jmg,0.35Ξ ($74),"Aug 09, 2019",0.35,74,2019-08-09
6676,Sold,0x00d7c9,Pranksy,0.40Ξ ($118),"Jun 21, 2019",0.4,118,2019-06-21
6678,Sold,TokenAng…,0xc05488,"35Ξ ($63,565)","Mar 12, 2021",35,63565,2021-03-12
6678,Sold,Pranksy,TokenAng…,1Ξ ($145),"Jan 07, 2020",1,145,2020-01-07
6678,Sold,0x00d7c9,Pranksy,0.40Ξ ($118),"Jun 21, 2019",0.4,118,2019-06-21
6680,Sold,Pranksy,0x2db1c4,0.60Ξ ($75),"Dec 26, 2019",0.6,75,2019-12-26
6680,Sold,0x00d7c9,Pranksy,0.40Ξ ($118),"Jun 21, 2019",0.4,118,2019-06-21
6682,Sold,Kataster…,wattana.…,"19.98Ξ ($42,629)","Apr 10, 2021",19.98,42629,2021-04-10
6682,Sold,Goop,Kataster…,0.37Ξ ($56),"Dec 08, 2019",0.37,56,2019-12-08
6682,Sold,Pranksy,Goop,0.35Ξ ($53),"Nov 23, 2019",0.35,53,2019-11-23
6682,Sold,0x00d7c9,Pranksy,0.40Ξ ($118),"Jun 21, 2019",0.4,118,2019-06-21
6683,Sold,Pranksy,0xe5e771,"2.89Ξ ($1,030)","Sep 25, 2020",2.89,1030,2020-09-25
6683,Sold,Hemba,Pranksy,2.30Ξ ($796),"Sep 24, 2020",2.3,796,2020-09-24
6685,Sold,Pranksy,evkort,"4.99Ξ ($1,756)","Oct 05, 2020",4.99,1756,2020-10-05
6685,Sold,KittyGr_…,Pranksy,"4.10Ξ ($1,446)","Oct 04, 2020",4.1,1446,2020-10-04
6685,Sold,0x00d7c9,KittyGr_…,0.05Ξ ($30),"Jun 08, 2018",0.05,30,2018-06-08
6686,Sold,Korniej,0xe5e771,2.50Ξ ($854),"Sep 23, 2020",2.5,854,2020-09-23
6686,Sold,Dude_Nak…,Korniej,1.99Ξ ($680),"Sep 22, 2020",1.99,680,2020-09-22
6686,Sold,Pranksy,Dude_Nak…,1.25Ξ ($458),"Sep 11, 2020",1.25,458,2020-09-11
6686,Sold,0x00d7c9,Pranksy,0.40Ξ ($118),"Jun 21, 2019",0.4,118,2019-06-21
6687,Sold,15808747,14650138,0.30Ξ ($86),"Jun 27, 2017",0.3,86,2017-06-27
6691,Sold,0xaae8c5,0x6a316f,"19.98Ξ ($33,191)","Mar 07, 2021",19.98,33191,2021-03-07
6691,Sold,MANAmans…,0x13816f,"5.45Ξ ($1,893)","Oct 03, 2020",5.45,1893,2020-10-03
6691,Sold,j1mmy,MANAmans…,"4.44Ξ ($1,595)","Sep 28, 2020",4.44,1595,2020-09-28
6691,Sold,ChrisR,j1mmy,1.08Ξ ($392),"Sep 10, 2020",1.08,392,2020-09-10
6691,Sold,0x0b30fd,Sylveste…,0.45Ξ ($76),"May 03, 2019",0.45,76,2019-05-03
6692,Sold,Cyborg,0xc352b5,0.20Ξ ($38),"Oct 11, 2018",0.2,38,2018-10-11
6692,Sold,0x0b30fd,Cyborg,0.29Ξ ($65),"Jul 24, 2017",0.29,65,2017-07-24
6695,Sold,0x28ab69,pleyuh.e…,"9.90Ξ ($17,991)","Feb 13, 2021",9.9,17991,2021-02-13
6695,Sold,shilpixe…,Mikhail,0.28Ξ ($72),"Sep 21, 2017",0.28,72,2017-09-21
6696,Sold,733437,45688,0.38Ξ ($92),"Jul 07, 2017",0.38,92,2017-07-07
6697,Sold,nftwar.e…,0x502ba2,"18.40Ξ ($37,292)","Apr 05, 2021",18.4,37292,2021-04-05
6697,Sold,jesterbo…,nftwar.e…,"16.95Ξ ($32,906)","Feb 21, 2021",16.95,32906,2021-02-21
6699,Sold,antunes_…,tonyherr…,"7.50Ξ ($10,385)","Jan 25, 2021",7.5,10385,2021-01-25
6699,Sold,Pranksy,antunes_…,1Ξ ($138),"Jan 10, 2020",1,138,2020-01-10
6699,Sold,0x00d7c9,Pranksy,0.40Ξ ($118),"Jun 21, 2019",0.4,118,2019-06-21
6700,Sold,0x58164b,Kenney,0.10Ξ ($70),"Apr 24, 2018",0.1,70,2018-04-24
6704,Sold,0x087173,0xa524d8,"380Ξ ($785,468)","Apr 08, 2021",380,785468,2021-04-08
6704,Sold,0x655533,0x087173,"35Ξ ($15,878)","Nov 16, 2020",35,15878,2020-11-16
6704,Sold,0x978830,0x976b59,"5Ξ ($1,127)","Oct 02, 2018",5,1127,2018-10-02
6705,Sold,Hex,0x7a3960,"4.90Ξ ($1,834)","Oct 12, 2020",4.9,1834,2020-10-12
6705,Sold,1h1,Hex,"5.15Ξ ($1,782)","Oct 03, 2020",5.15,1782,2020-10-03
6705,Sold,Pranksy,1h1,1.25Ξ ($458),"Sep 11, 2020",1.25,458,2020-09-11
6705,Sold,0xd5fb85,Pranksy,1.30Ξ ($474),"Sep 11, 2020",1.3,474,2020-09-11
6705,Sold,0x1a96af,0x67b404,1.20Ξ ($274),"Jun 22, 2020",1.2,274,2020-06-22
6706,Sold,Hemba,0x287b15,0.35Ξ ($448),"Jan 15, 2018",0.35,448,2018-01-15
6707,Sold,0x577ebc,5333869,"58Ξ ($105,488)","Mar 19, 2021",58,105488,2021-03-19
6708,Sold,6471110,13807606,"29.99Ξ ($48,609)","Mar 26, 2021",29.99,48609,2021-03-26
6708,Sold,13275108,6471110,"28.99Ξ ($50,620)","Mar 22, 2021",28.99,50620,2021-03-22
6710,Sold,0xbf6ccf,0x561786,"5.70Ξ ($6,739)","Jan 14, 2021",5.7,6739,2021-01-14
6710,Sold,0xf0f068…,0xbf6ccf,"5.46Ξ ($3,982)","Dec 29, 2020",5.46,3982,2020-12-29
6710,Sold,223332,0xf0f068…,"4.80Ξ ($1,717)","Sep 28, 2020",4.8,1717,2020-09-28
6710,Sold,0x0a4eaf…,223332,2.24Ξ ($736),"Sep 24, 2020",2.24,736,2020-09-24
6710,Sold,Cyborg,0x0a4eaf…,0.35Ξ ($67),"Jul 11, 2017",0.35,67,2017-07-11
6711,Sold,16058782,9863097,0.75Ξ ($68),"Dec 06, 2018",0.75,68,2018-12-06
6711,Sold,6827056,10528156,0.35Ξ ($94),"Jul 04, 2017",0.35,94,2017-07-04
6712,Sold,jesterbo…,WuTangCl…,"20.20Ξ ($39,628)","Feb 21, 2021",20.2,39628,2021-02-21
6713,Sold,328685,5341180,"25Ξ ($41,535)","Mar 07, 2021",25,41535,2021-03-07
6713,Sold,13275108,328685,"22Ξ ($29,934)","Feb 28, 2021",22,29934,2021-02-28
6714,Sold,2842985,sumrtime…,"32Ξ ($60,183)","Feb 22, 2021",32,60183,2021-02-22
6716,Sold,0xaea8e3,tentacle…,"21Ξ ($35,566)","Mar 29, 2021",21,35566,2021-03-29
6716,Sold,0xca8fe4,0xaea8e3,"19Ξ ($32,483)","Mar 28, 2021",19,32483,2021-03-28
6717,Sold,8533182,warrbos.…,0.10Ξ ($73),"Mar 09, 2018",0.1,73,2018-03-09
6718,Sold,0xaea8e3,0x50664e,"22.49Ξ ($46,487)","Apr 08, 2021",22.49,46487,2021-04-08
6718,Sold,0xf4a775,0xaea8e3,"20Ξ ($32,695)","Mar 26, 2021",20,32695,2021-03-26
6718,Sold,Hemba,0xf4a775,0.10Ξ ($47),"Dec 04, 2017",0.1,47,2017-12-04
6720,Sold,0x54d7f9,0xcf8401,"110Ξ ($220,685)","Apr 08, 2021",110,220685,2021-04-08
6720,Sold,Pranksy,0x54d7f9,"74Ξ ($141,081)","Feb 21, 2021",74,141081,2021-02-21
6720,Sold,jesterbo…,Pranksy,"39Ξ ($55,176)","Feb 02, 2021",39,55176,2021-02-02
6721,Sold,6646928,6689278,0.61Ξ ($116),"Jul 17, 2017",0.61,116,2017-07-17
6724,Sold,MrNFT,0x5e7ab9,2.18Ξ ($747),"Sep 22, 2020",2.18,747,2020-09-22
6724,Sold,Pranksy,MrNFT,1.78Ξ ($678),"Sep 20, 2020",1.78,678,2020-09-20
6724,Sold,Goop,alxo,0.26Ξ ($40),"Nov 23, 2019",0.26,40,2019-11-23
6724,Sold,juggerna…,Goop,0.25Ξ ($38),"Nov 23, 2019",0.25,38,2019-11-23
6726,Sold,0x0b30fd,7435267,0.05Ξ ($16),"Jun 28, 2017",0.05,16,2017-06-28
6727,Sold,0xca8fe4,3769926,"30Ξ ($50,863)","Mar 27, 2021",30,50863,2021-03-27
6728,Sold,Pranksy,0x6ec30f,"23Ξ ($38,606)","Mar 27, 2021",23,38606,2021-03-27
6728,Sold,EliteCat…,Pranksy,"9.55Ξ ($15,934)","Feb 04, 2021",9.55,15934,2021-02-04
6728,Sold,0x4dcaf3,GoWest23,0.75Ξ ($100),"Jan 04, 2020",0.75,100,2020-01-04
6728,Sold,0x0b30fd,0x4dcaf3,0.68Ξ ($164),"Jul 07, 2017",0.68,164,2017-07-07
6730,Sold,na,0x074cfe,"11Ξ ($20,180)","Feb 15, 2021",11,20180,2021-02-15
6730,Sold,0x0b30fd,na,0.29Ξ ($67),"Jul 22, 2017",0.29,67,2017-07-22
6735,Sold,0x1da533,0x052564,"6Ξ ($2,189)","Sep 28, 2020",6,2189,2020-09-28
6735,Sold,treetop,DANNY,1.95Ξ ($392),"May 26, 2020",1.95,392,2020-05-26
6735,Sold,0x1a96af,treetop,1.35Ξ ($281),"May 22, 2020",1.35,281,2020-05-22
6738,Sold,juggerna…,Flaz,0.25Ξ ($46),"Oct 30, 2019",0.25,46,2019-10-30
6740,Sold,0x89ba62,233759,1.15Ξ ($870),"Jan 01, 2018",1.15,870,2018-01-01
6743,Sold,0x0a4eaf…,snowfro,0.35Ξ ($52),"Feb 22, 2019",0.35,52,2019-02-22
6744,Sold,13886183,9837923,"14.70Ξ ($28,300)","Feb 18, 2021",14.7,28300,2021-02-18
6744,Sold,13275108,13886183,"7.60Ξ ($13,116)","Feb 10, 2021",7.6,13116,2021-02-10
6747,Sold,13275108,15693900,"42.50Ξ ($76,392)","Mar 18, 2021",42.5,76392,2021-03-18
6749,Sold,Kataster…,0xaea8e3,"22.49Ξ ($40,456)","Mar 19, 2021",22.49,40456,2021-03-19
6749,Sold,7478,Kataster…,0.40Ξ ($59),"Dec 09, 2019",0.4,59,2019-12-09
6749,Sold,juggerna…,7478,0.25Ξ ($47),"Nov 04, 2019",0.25,47,2019-11-04
6750,Sold,2045694,942439,"15.99Ξ ($31,547)","Feb 21, 2021",15.99,31547,2021-02-21
6750,Sold,3699717,2045694,"4Ξ ($5,089)","Jan 16, 2021",4,5089,2021-01-16
6751,Sold,jesterbo…,0x0ebd1a,"15.40Ξ ($27,219)","Feb 17, 2021",15.4,27219,2021-02-17
6752,Sold,0x13816f,Hodl94,"8.25Ξ ($3,117)","Oct 15, 2020",8.25,3117,2020-10-15
6752,Sold,Carlini8,0x13816f,"7.50Ξ ($2,653)","Oct 05, 2020",7.5,2653,2020-10-05
6752,Sold,KittyGr_…,Carlini8,"6.50Ξ ($2,289)","Oct 04, 2020",6.5,2289,2020-10-04
6752,Sold,0x00d7c9,KittyGr_…,0.10Ξ ($60),"Jun 08, 2018",0.1,60,2018-06-08
6753,Sold,5734076,1267615,"43Ξ ($78,945)","Mar 20, 2021",43,78945,2021-03-20
6755,Sold,0x033ee7,seel.eth,"13.54Ξ ($25,647)","Feb 21, 2021",13.54,25647,2021-02-21
6755,Sold,0xe4c479,0x033ee7,"2.90Ξ ($1,031)","Sep 26, 2020",2.9,1031,2020-09-26
6755,Sold,Pranksy,0xe4c479,2.75Ξ ($937),"Sep 25, 2020",2.75,937,2020-09-25
6755,Sold,0x5aaeb9,Pranksy,2.29Ξ ($792),"Sep 24, 2020",2.29,792,2020-09-24
6755,Sold,Pranksy,0x5aaeb9,2.19Ξ ($757),"Sep 24, 2020",2.19,757,2020-09-24
6755,Sold,Hemba,Pranksy,1.80Ξ ($613),"Sep 22, 2020",1.8,613,2020-09-22
6756,Sold,12878075,393680,"9.99Ξ ($12,470)","Jan 22, 2021",9.99,12470,2021-01-22
6757,Sold,5734076,16455745,"21.99Ξ ($40,120)","Mar 12, 2021",21.99,40120,2021-03-12
6758,Sold,5734076,5460600,"27.99Ξ ($49,959)","Mar 12, 2021",27.99,49959,2021-03-12
6760,Sold,13358210,0x00bd3a,0.20Ξ ($57),"Jul 02, 2017",0.2,57,2017-07-02
6762,Sold,akrav.et…,0xb74f01,"16.25Ξ ($32,061)","Feb 20, 2021",16.25,32061,2021-02-20
6762,Sold,redlione…,akrav.et…,"13.49Ξ ($26,533)","Feb 19, 2021",13.49,26533,2021-02-19
6762,Sold,natealex,redlione…,1.50Ξ ($562),"Sep 12, 2020",1.5,562,2020-09-12
6762,Sold,Pranksy,natealex,1.25Ξ ($458),"Sep 11, 2020",1.25,458,2020-09-11
6762,Sold,Dude_Nak…,Pranksy,0.99Ξ ($198),"May 15, 2020",0.99,198,2020-05-15
6762,Sold,TweetyPi…,Dude_Nak…,0.42Ξ ($55),"Jan 01, 2020",0.42,55,2020-01-01
6762,Sold,ark1,TweetyPi…,0.31Ξ ($38),"Dec 17, 2019",0.31,38,2019-12-17
6762,Sold,0x00d7c9,ark1,0.25Ξ ($47),"Sep 15, 2019",0.25,47,2019-09-15
6767,Sold,14548427,13886183,"22.99Ξ ($47,767)","Apr 08, 2021",22.99,47767,2021-04-08
6767,Sold,7293485,14548427,"19.75Ξ ($40,824)","Apr 08, 2021",19.75,40824,2021-04-08
6768,Sold,48442,8008732,0.39Ξ ($80),"Jul 10, 2017",0.39,80,2017-07-10
6768,Sold,733437,48442,0.20Ξ ($59),"Jun 29, 2017",0.2,59,2017-06-29
6769,Sold,13358210,7823584,0.35Ξ ($83),"Jul 09, 2017",0.35,83,2017-07-09
6770,Sold,1700403,7823584,0.21Ξ ($57),"Jul 04, 2017",0.21,57,2017-07-04
6771,Sold,na,MBK,"11Ξ ($3,894)","Oct 06, 2020",11,3894,2020-10-06
6771,Sold,0xd8e806,na,0.35Ξ ($122),"Aug 28, 2017",0.35,122,2017-08-28
6775,Sold,0xc2ac3c,1320146,0.18Ξ ($18),"Dec 05, 2018",0.18,18,2018-12-05
6775,Sold,0x0b30fd,11607402,0.13Ξ ($39),"Oct 12, 2017",0.13,39,2017-10-12
6778,Sold,0x97920e,12502685,"26.67Ξ ($55,127)","Apr 08, 2021",26.67,55127,2021-04-08
6778,Sold,0x577ebc,9933326,"29.99Ξ ($52,135)","Mar 12, 2021",29.99,52135,2021-03-12
6779,Sold,0xc05488,0x51636d,"49Ξ ($88,386)","Mar 21, 2021",49,88386,2021-03-21
6779,Sold,niwin,0xc05488,"44Ξ ($79,989)","Mar 12, 2021",44,79989,2021-03-12
6779,Sold,DANNY,niwin,"42Ξ ($82,060)","Feb 21, 2021",42,82060,2021-02-21
6779,Sold,0x4d17cf,DANNY,"15Ξ ($6,128)","Oct 26, 2020",15,6128,2020-10-26
6780,Sold,733437,45688,0.48Ξ ($116),"Jul 07, 2017",0.48,116,2017-07-07
6782,Sold,0x13816f,0x1e243e,"15.88Ξ ($30,487)","Feb 19, 2021",15.88,30487,2021-02-19
6782,Sold,0xe754d1,0x13816f,"4.80Ξ ($1,690)","Oct 02, 2020",4.8,1690,2020-10-02
6782,Sold,Pranksy,0xe754d1,"3.20Ξ ($1,135)","Sep 27, 2020",3.2,1135,2020-09-27
6782,Sold,Hemba,Pranksy,2.30Ξ ($796),"Sep 24, 2020",2.3,796,2020-09-24
6784,Sold,Snowfro,0xb1adce,"130Ξ ($224,930)","Feb 11, 2021",130,224930,2021-02-11
6786,Sold,0x59ff2f,PB,1.50Ξ ($198),"Mar 14, 2020",1.5,198,2020-03-14
6786,Sold,GtC,0x59ff2f,1.86Ξ ($303),"Jan 26, 2020",1.86,303,2020-01-26
6786,Sold,0xf0f068…,GtC,1.80Ξ ($303),"Jan 18, 2020",1.8,303,2020-01-18
6786,Sold,scalynel…,0xf0f068…,0.95Ξ ($138),"Jan 08, 2020",0.95,138,2020-01-08
6786,Sold,Pranksy,scalynel…,0.55Ξ ($71),"Jan 02, 2020",0.55,71,2020-01-02
6786,Sold,0x00d7c9,Pranksy,0.25Ξ ($45),"Sep 02, 2019",0.25,45,2019-09-02
6787,Sold,0xb40dac,Mang0,"3.45Ξ ($1,239)","Sep 28, 2020",3.45,1239,2020-09-28
6787,Sold,0x5aaeb9,0xb40dac,2.65Ξ ($931),"Sep 24, 2020",2.65,931,2020-09-24
6787,Sold,capital_…,0x5aaeb9,2.49Ξ ($862),"Sep 24, 2020",2.49,862,2020-09-24
6787,Sold,j1mmy,capital_…,1.90Ξ ($711),"Sep 15, 2020",1.9,711,2020-09-15
6787,Sold,Hemba,j1mmy,1.40Ξ ($511),"Sep 14, 2020",1.4,511,2020-09-14
6788,Sold,0x596572,taneleer…,"29Ξ ($45,378)","Feb 23, 2021",29,45378,2021-02-23
6788,Sold,0x910b41,0x596572,"23.60Ξ ($46,110)","Feb 21, 2021",23.6,46110,2021-02-21
6788,Sold,Deeze,0x910b41,"5.75Ξ ($7,288)","Jan 27, 2021",5.75,7288,2021-01-27
6788,Sold,evkort,Deeze,"5Ξ ($6,199)","Jan 23, 2021",5,6199,2021-01-23
6788,Sold,0xf1b658,evkort,"4.75Ξ ($5,570)","Jan 16, 2021",4.75,5570,2021-01-16
6788,Sold,EliteCat…,Deeze,"7.65Ξ ($9,133)","Jan 07, 2021",7.65,9133,2021-01-07
6788,Sold,Hemba,GoWest23,0.43Ξ ($75),"May 06, 2019",0.43,75,2019-05-06
6790,Sold,Hemba,0x137320,1.80Ξ ($663),"Sep 21, 2020",1.8,663,2020-09-21
6793,Sold,beautifu…,sillytun…,"78Ξ ($141,398)","Mar 11, 2021",78,141398,2021-03-11
6793,Sold,0x84c920,beautifu…,"60Ξ ($106,195)","Mar 10, 2021",60,106195,2021-03-10
6793,Sold,Pranksy,0x84c920,"70Ξ ($115,809)","Mar 07, 2021",70,115809,2021-03-07
6793,Sold,jesterbo…,Pranksy,"31Ξ ($43,858)","Feb 02, 2021",31,43858,2021-02-02
6795,Sold,sov,0xe5e771,"15Ξ ($5,429)","Sep 28, 2020",15,5429,2020-09-28
6795,Sold,0x00d7c9,sov,0.30Ξ ($100),"Aug 26, 2017",0.3,100,2017-08-26
6800,Sold,5772875,7435267,0.05Ξ ($19),"Apr 04, 2018",0.05,19,2018-04-04
6802,Sold,1700403,14925702,"25Ξ ($43,653)","Mar 22, 2021",25,43653,2021-03-22
6803,Sold,0x336caf,0xa0efdc,"19Ξ ($30,194)","Feb 24, 2021",19,30194,2021-02-24
6803,Sold,0x727646,0x336caf,"9.99Ξ ($17,667)","Feb 17, 2021",9.99,17667,2021-02-17
6803,Sold,Michel_M…,0x727646,2.45Ξ ($848),"Sep 24, 2020",2.45,848,2020-09-24
6803,Sold,Pranksy,Michel_M…,2.19Ξ ($757),"Sep 24, 2020",2.19,757,2020-09-24
6803,Sold,Hemba,Pranksy,1.80Ξ ($613),"Sep 22, 2020",1.8,613,2020-09-22
6804,Sold,NeonNFT,0x7a3960,"4.70Ξ ($1,759)","Oct 12, 2020",4.7,1759,2020-10-12
6804,Sold,0x7c18fd,NeonNFT,"4.99Ξ ($1,730)","Oct 06, 2020",4.99,1730,2020-10-06
6804,Sold,Carlini8,0x7c18fd,"5.99Ξ ($2,086)","Oct 03, 2020",5.99,2086,2020-10-03
6804,Sold,223332,Carlini8,"5.85Ξ ($2,032)","Oct 03, 2020",5.85,2032,2020-10-03
6804,Sold,Pranksy,223332,"4.99Ξ ($1,814)","Sep 28, 2020",4.99,1814,2020-09-28
6804,Sold,Carlini8,Pranksy,"3.99Ξ ($1,427)","Sep 28, 2020",3.99,1427,2020-09-28
6804,Sold,0xb40dac,Carlini8,"3.80Ξ ($1,355)","Sep 28, 2020",3.8,1355,2020-09-28
6804,Sold,Hemba,0xb40dac,"3Ξ ($1,054)","Sep 24, 2020",3,1054,2020-09-24
6806,Sold,1700403,6815500,"20Ξ ($39,458)","Feb 21, 2021",20,39458,2021-02-21
6807,Sold,0x74be0a,MadMax,"34.99Ξ ($69,032)","Feb 21, 2021",34.99,69032,2021-02-21
6807,Sold,0x1da533,0x74be0a,"24Ξ ($43,526)","Feb 17, 2021",24,43526,2021-02-17
6807,Sold,jmg,DANNY,"8.39Ξ ($2,966)","Sep 06, 2020",8.39,2966,2020-09-06
6807,Sold,shilpixe…,jmg,2.50Ξ ($468),"Apr 25, 2020",2.5,468,2020-04-25
6808,Sold,MadMax,0xee433c,"33.50Ξ ($61,441)","Mar 18, 2021",33.5,61441,2021-03-18
6808,Sold,0x577ebc,MadMax,"9Ξ ($16,355)","Feb 14, 2021",9,16355,2021-02-14
6809,Sold,Pranksy,zonted,"3.99Ξ ($1,379)","Sep 21, 2020",3.99,1379,2020-09-21
6809,Sold,TokenAng…,evkort,"6.50Ξ ($2,447)","Sep 15, 2020",6.5,2447,2020-09-15
6809,Sold,jmg,TokenAng…,0.75Ξ ($201),"Jun 16, 2019",0.75,201,2019-06-16
6809,Sold,0x595bd0,0x00bd3a,0.25Ξ ($51),"Jul 26, 2017",0.25,51,2017-07-26
6810,Sold,0x8a4f86,0x516358,"16Ξ ($34,114)","Apr 06, 2021",16,34114,2021-04-06
6811,Sold,0xf4a775,✨🚀🌙.et…,"20Ξ ($31,810)","Mar 25, 2021",20,31810,2021-03-25
6811,Sold,0x00d7c9,0xf4a775,0.10Ξ ($47),"Dec 04, 2017",0.1,47,2017-12-04
6816,Sold,0xf0f068…,0xbac42c,"10.25Ξ ($13,817)","Jan 10, 2021",10.25,13817,2021-01-10
6816,Sold,ddaavvee,0xf0f068…,"10Ξ ($3,579)","Sep 28, 2020",10,3579,2020-09-28
6818,Sold,2pac,gCAN,"3.50Ξ ($2,045)","Dec 14, 2020",3.5,2045,2020-12-14
6818,Sold,0x0713a6,0x257e2b,"6.10Ξ ($2,307)","Oct 15, 2020",6.1,2307,2020-10-15
6818,Sold,0x0553de,0x0713a6,0.89Ξ ($180),"May 17, 2020",0.89,180,2020-05-17
6818,Sold,0x00d7c9,0x0553de,0.40Ξ ($84),"Aug 09, 2019",0.4,84,2019-08-09
6819,Sold,6689278,2732466,"55Ξ ($100,062)","Mar 17, 2021",55,100062,2021-03-17
6819,Sold,5052367,6689278,0.25Ξ ($203),"Dec 19, 2017",0.25,203,2017-12-19
6821,Sold,11004839,5642118,"5.99Ξ ($6,466)","Jan 12, 2021",5.99,6466,2021-01-12
6824,Sold,Davicio,0x561786,"4.98Ξ ($5,376)","Jan 12, 2021",4.98,5376,2021-01-12
6824,Sold,0x1a96af,Davicio,1.15Ξ ($232),"May 22, 2020",1.15,232,2020-05-22
6826,Sold,0xca8fe4,5739293,"19.99Ξ ($36,807)","Mar 30, 2021",19.99,36807,2021-03-30
6828,Sold,0x19ac60,0xe92c9e,"5.69Ξ ($8,727)","Feb 03, 2021",5.69,8727,2021-02-03
6829,Sold,13275108,10393464,"11Ξ ($19,985)","Feb 13, 2021",11,19985,2021-02-13
6830,Sold,3699717,6448205,"20.02Ξ ($32,898)","Mar 07, 2021",20.02,32898,2021-03-07
6831,Sold,Pranksy,daLenz,1.42Ξ ($334),"Jun 22, 2020",1.42,334,2020-06-22
6831,Sold,0x00d7c9,Pranksy,0.25Ξ ($45),"Sep 02, 2019",0.25,45,2019-09-02
6832,Sold,509418,16525921,"19.50Ξ ($38,099)","Feb 21, 2021",19.5,38099,2021-02-21
6832,Sold,7293485,509418,"14.90Ξ ($27,327)","Feb 17, 2021",14.9,27327,2021-02-17
6834,Sold,pleyuh.e…,0x4e84a9,"19.50Ξ ($34,537)","Mar 11, 2021",19.5,34537,2021-03-11
6834,Sold,0x4960c4…,pleyuh.e…,"9.99Ξ ($17,125)","Feb 08, 2021",9.99,17125,2021-02-08
6834,Sold,Crypto_P…,0x4960c4…,"8.25Ξ ($13,710)","Feb 04, 2021",8.25,13710,2021-02-04
6834,Sold,thi,Crypto_P…,"5Ξ ($2,072)","Oct 22, 2020",5,2072,2020-10-22
6834,Sold,GoWest23,thi,"7.15Ξ ($2,558)","Sep 28, 2020",7.15,2558,2020-09-28
6834,Sold,0x00d7c9,GoWest23,0.50Ξ ($87),"May 06, 2019",0.5,87,2019-05-06
6837,Sold,opal.eth,0xb74f01,"22Ξ ($42,948)","Feb 21, 2021",22,42948,2021-02-21
6837,Sold,i🔫you.e…,opal.eth,"13.52Ξ ($26,302)","Feb 19, 2021",13.52,26302,2021-02-19
6837,Sold,Gmugr,i🔫you.e…,"8.75Ξ ($16,090)","Feb 14, 2021",8.75,16090,2021-02-14
6837,Sold,Goop,Bombard,0.57Ξ ($80),"Jan 09, 2020",0.57,80,2020-01-09
6837,Sold,0x87e225,Goop,0.55Ξ ($76),"Jan 08, 2020",0.55,76,2020-01-08
6837,Sold,0x470e9b,0x87e225,0.30Ξ ($47),"Jan 04, 2019",0.3,47,2019-01-04
6839,Sold,jesterbo…,0xe75021,"33.33Ξ ($65,757)","Feb 21, 2021",33.33,65757,2021-02-21
6842,Sold,0x5b098b,16745492,0.15Ξ ($44),"Jun 29, 2017",0.15,44,2017-06-29
6843,Sold,422151,4399786,"5.89Ξ ($8,334)","Jan 25, 2021",5.89,8334,2021-01-25
6844,Sold,6689278,10674016,"55Ξ ($97,440)","Mar 18, 2021",55,97440,2021-03-18
6848,Sold,Hemba,0x185703,1.07Ξ ($430),"Aug 29, 2020",1.07,430,2020-08-29
6849,Sold,13015780,4885406,"3.40Ξ ($1,117)","Sep 24, 2020",3.4,1117,2020-09-24
6849,Sold,6689278,13015780,1.20Ξ ($246),"May 25, 2020",1.2,246,2020-05-25
6850,Sold,8009633,6870182,"22Ξ ($39,291)","Mar 15, 2021",22,39291,2021-03-15
6850,Sold,6689278,8009633,"17.85Ξ ($31,752)","Mar 11, 2021",17.85,31752,2021-03-11
6861,Sold,0x6611fe,0x5caff0…,"20Ξ ($34,697)","Feb 16, 2021",20,34697,2021-02-16
6863,Sold,0x609630,0x33b17a,"28.50Ξ ($49,158)","Mar 16, 2021",28.5,49158,2021-03-16
6863,Sold,0x33c265,0x609630,"20.99Ξ ($36,530)","Mar 08, 2021",20.99,36530,2021-03-08
6863,Sold,bacchus.…,0x33c265,"19Ξ ($33,087)","Mar 08, 2021",19,33087,2021-03-08
6863,Sold,Deeze,bacchus.…,"12.49Ξ ($22,660)","Feb 10, 2021",12.49,22660,2021-02-10
6863,Sold,Slats_et…,Deeze,"5.90Ξ ($7,156)","Jan 07, 2021",5.9,7156,2021-01-07
6863,Sold,_etherea…,Slats_et…,3Ξ ($617),"May 27, 2020",3,617,2020-05-27
6863,Sold,Decentra…,_etherea…,0.90Ξ ($236),"Feb 20, 2020",0.9,236,2020-02-20
6863,Sold,0x6611fe,0x9cd85c,0.95Ξ ($135),"Jan 06, 2020",0.95,135,2020-01-06
6868,Sold,Ur84NKri…,NFTinTin,"3.49Ξ ($1,351)","Sep 18, 2020",3.49,1351,2020-09-18
6868,Sold,0x1a96af,Ur84NKri…,0.68Ξ ($124),"Apr 19, 2020",0.68,124,2020-04-19
6869,Sold,0x4d17cf,0x34e801,1Ξ ($396),"Oct 21, 2020",1,396,2020-10-21
6871,Sold,natealex,0x290fbe,"50Ξ ($89,041)","Mar 17, 2021",50,89041,2021-03-17
6871,Sold,jesterbo…,natealex,"45.54Ξ ($89,846)","Feb 21, 2021",45.54,89846,2021-02-21
6873,Sold,3van.eth,0x6c1ddf,"6.99Ξ ($9,531)","Jan 26, 2021",6.99,9531,2021-01-26
6873,Sold,0x8bb4f3,3van.eth,"5Ξ ($6,144)","Jan 22, 2021",5,6144,2021-01-22
6875,Sold,15840856,7650826,"35Ξ ($67,214)","Feb 19, 2021",35,67214,2021-02-19
6875,Sold,6689278,15840856,"33Ξ ($57,168)","Feb 15, 2021",33,57168,2021-02-15
6876,Sold,0xcbd482,redlione…,"4Ξ ($4,695)","Jan 17, 2021",4,4695,2021-01-17
6877,Sold,5734076,3255448,"25Ξ ($53,058)","Apr 11, 2021",25,53058,2021-04-11
6877,Sold,14492587,5734076,"21Ξ ($37,205)","Mar 22, 2021",21,37205,2021-03-22
6877,Sold,5734076,4608588,"24.50Ξ ($37,281)","Mar 01, 2021",24.5,37281,2021-03-01
6878,Sold,wookie.e…,0x0b7059,"19.69Ξ ($40,638)","Apr 08, 2021",19.69,40638,2021-04-08
6878,Sold,0xffe678,wookie.e…,"18.50Ξ ($30,832)","Mar 26, 2021",18.5,30832,2021-03-26
6878,Sold,0xddb7bf,0xffe678,"18.50Ξ ($33,650)","Mar 09, 2021",18.5,33650,2021-03-09
6878,Sold,0xca8fe4,0xddb7bf,"22.99Ξ ($36,106)","Mar 02, 2021",22.99,36106,2021-03-02
6879,Sold,0xca8fe4,10969369,"22.50Ξ ($38,340)","Mar 28, 2021",22.5,38340,2021-03-28
6880,Sold,renaissa…,0xda44e1,"28.90Ξ ($47,695)","Feb 24, 2021",28.9,47695,2021-02-24
6880,Sold,0x577ebc,renaissa…,"11Ξ ($19,790)","Feb 16, 2021",11,19790,2021-02-16
6883,Sold,akrav.et…,0xcdc424,"21Ξ ($32,198)","Feb 25, 2021",21,32198,2021-02-25
6883,Sold,0x577ebc,akrav.et…,"15Ξ ($28,759)","Feb 21, 2021",15,28759,2021-02-21
6884,Sold,11976269,16033653,0.09Ξ ($41),"Dec 05, 2017",0.09,41,2017-12-05
6886,Sold,VonMises,0x196a3d,1.75Ξ ($678),"Sep 13, 2020",1.75,678,2020-09-13
6886,Sold,MrTpunks…,VonMises,0.70Ξ ($130),"Apr 24, 2020",0.7,130,2020-04-24
6886,Sold,scalynel…,MrTpunks…,0.70Ξ ($113),"Jan 16, 2020",0.7,113,2020-01-16
6886,Sold,Pranksy,scalynel…,0.55Ξ ($79),"Jan 07, 2020",0.55,79,2020-01-07
6886,Sold,0x00d7c9,Pranksy,0.25Ξ ($45),"Sep 02, 2019",0.25,45,2019-09-02
6891,Sold,11335240,5657750,"34Ξ ($54,639)","Mar 03, 2021",34,54639,2021-03-03
6891,Sold,328685,11335240,"24Ξ ($47,350)","Feb 21, 2021",24,47350,2021-02-21
6891,Sold,5734076,328685,"16Ξ ($28,927)","Feb 15, 2021",16,28927,2021-02-15
6892,Sold,Michel_M…,0x196a3d,1.62Ξ ($628),"Sep 13, 2020",1.62,628,2020-09-13
6892,Sold,ChrisR,Michel_M…,1.29Ξ ($473),"Sep 10, 2020",1.29,473,2020-09-10
6892,Sold,0x00d7c9,ChrisR,0.50Ξ ($85),"May 09, 2019",0.5,85,2019-05-09
6896,Sold,5734076,5333848,"27.99Ξ ($60,012)","Apr 12, 2021",27.99,60012,2021-04-12
6897,Sold,5734076,486676,"26.49Ξ ($45,288)","Mar 28, 2021",26.49,45288,2021-03-28
6900,Sold,Dude_Nak…,vibedog,1.45Ξ ($274),"Feb 03, 2020",1.45,274,2020-02-03
6900,Sold,0x58164b,Dude_Nak…,0.06Ξ ($32),"Apr 18, 2018",0.06,32,2018-04-18
6901,Sold,Hemba,0x93db36,2.50Ξ ($961),"Sep 20, 2020",2.5,961,2020-09-20
6904,Sold,Davicio,Zieg,"3Ξ ($1,100)","Sep 14, 2020",3,1100,2020-09-14
6904,Sold,MadMax,Davicio,1.95Ξ ($400),"May 28, 2020",1.95,400,2020-05-28
6904,Sold,Pranksy,MadMax,1Ξ ($200),"May 15, 2020",1,200,2020-05-15
6904,Sold,0x00d7c9,Pranksy,0.25Ξ ($45),"Sep 02, 2019",0.25,45,2019-09-02
6908,Sold,0x00d7c9,10893025,0.10Ξ ($42),"Aug 03, 2018",0.1,42,2018-08-03
6909,Sold,48442,45688,0.29Ξ ($70),"Jul 07, 2017",0.29,70,2017-07-07
6909,Sold,5966219,48442,0.21Ξ ($60),"Jul 02, 2017",0.21,60,2017-07-02
6915,Sold,straybit…,0x8adbff,"3.50Ξ ($2,447)","Dec 13, 2017",3.5,2447,2017-12-13
6918,Sold,0x19ac60,knifefig…,"6Ξ ($9,671)","Feb 05, 2021",6,9671,2021-02-05
6920,Sold,Hemba,0x98c488,0.72Ξ ($141),"May 16, 2020",0.72,141,2020-05-16
6921,Sold,Dude_Nak…,0x7e5280,0.95Ξ ($248),"May 19, 2019",0.95,248,2019-05-19
6921,Sold,0x8234be,Dude_Nak…,0.45Ξ ($65),"Mar 29, 2019",0.45,65,2019-03-29
6922,Sold,TokenAng…,snax,2.10Ξ ($778),"Sep 11, 2020",2.1,778,2020-09-11
6922,Sold,0xe45df5,TokenAng…,0.80Ξ ($212),"Jun 18, 2019",0.8,212,2019-06-18
6924,Sold,Hemba,Kenney,0.45Ξ ($526),"Jan 29, 2018",0.45,526,2018-01-29
6926,Sold,0xef466e,0xe703f2,"42.69Ξ ($85,071)","Apr 08, 2021",42.69,85071,2021-04-08
6926,Sold,EliteCat…,0xef466e,"37.10Ξ ($62,632)","Mar 28, 2021",37.1,62632,2021-03-28
6926,Sold,0x00d7c9,GoWest23,0.70Ξ ($119),"Apr 21, 2019",0.7,119,2019-04-21
6927,Sold,DjangoBi…,0x55afb7,0.10Ξ ($29),"Aug 16, 2018",0.1,29,2018-08-16
6927,Sold,0x515a82,0x9be1c7,0.18Ξ ($50),"Jul 03, 2017",0.18,50,2017-07-03
6928,Sold,6471110,14240741,"19.99Ξ ($33,747)","Mar 28, 2021",19.99,33747,2021-03-28
6928,Sold,13275108,6471110,"20Ξ ($33,717)","Mar 27, 2021",20,33717,2021-03-27
6931,Sold,0x927635,0x_NFT,"5Ξ ($1,844)","Oct 16, 2020",5,1844,2020-10-16
6931,Sold,Dude_Nak…,0x927635,"4.79Ξ ($1,714)","Sep 28, 2020",4.79,1714,2020-09-28
6931,Sold,0xe754d1,Dude_Nak…,2.30Ξ ($779),"Sep 24, 2020",2.3,779,2020-09-24
6931,Sold,Loopify,0xe754d1,1.95Ξ ($735),"Sep 14, 2020",1.95,735,2020-09-14
6931,Sold,MrNFT,Loopify,1.83Ξ ($689),"Sep 14, 2020",1.83,689,2020-09-14
6931,Sold,Alex3422,MrNFT,1.49Ξ ($355),"Jun 13, 2020",1.49,355,2020-06-13
6931,Sold,TweetyPi…,Alex3422,1.20Ξ ($282),"May 31, 2020",1.2,282,2020-05-31
6931,Sold,juggerna…,0x3b6259,1.25Ξ ($257),"May 24, 2020",1.25,257,2020-05-24
6932,Sold,0x032360,gaus,"40Ξ ($14,604)","Sep 28, 2020",40,14604,2020-09-28
6934,Sold,1742511,stazie,0.99Ξ ($194),"Apr 28, 2020",0.99,194,2020-04-28
6934,Sold,5966219,0xe45df5,0.09Ξ ($29),"Jun 23, 2017",0.09,29,2017-06-23
6936,Sold,3van.eth,0x3433fa,"5.25Ξ ($3,417)","Dec 26, 2020",5.25,3417,2020-12-26
6936,Sold,0xff40d2,evkort,"3.85Ξ ($2,325)","Dec 22, 2020",3.85,2325,2020-12-22
6936,Sold,0x4fa27c,0xff40d2,"4.85Ξ ($1,856)","Oct 31, 2020",4.85,1856,2020-10-31
6936,Sold,0xb60df4,0x4fa27c,"5Ξ ($2,067)","Oct 24, 2020",5,2067,2020-10-24
6936,Sold,BitcoinG…,0xb60df4,"5.75Ξ ($2,142)","Oct 11, 2020",5.75,2142,2020-10-11
6936,Sold,0x95318b,BitcoinG…,"5.90Ξ ($2,042)","Oct 04, 2020",5.9,2042,2020-10-04
6936,Sold,MrTpunks,0x95318b,"5Ξ ($1,788)","Sep 28, 2020",5,1788,2020-09-28
6936,Sold,j1mmy,MrTpunks,"3.95Ξ ($1,390)","Sep 27, 2020",3.95,1390,2020-09-27
6936,Sold,VonMises,j1mmy,"2.95Ξ ($1,021)","Sep 24, 2020",2.95,1021,2020-09-24
6936,Sold,CPyrc,VonMises,1.20Ξ ($469),"Aug 28, 2020",1.2,469,2020-08-28
6936,Sold,shilpixe…,Pranksy,0.70Ξ ($94),"Jan 04, 2020",0.7,94,2020-01-04
6939,Sold,11004839,1748239,0.29Ξ ($74),"Sep 17, 2017",0.29,74,2017-09-17
6940,Sold,valko.et…,0x4c1bd9…,"5Ξ ($1,819)","Sep 13, 2020",5,1819,2020-09-13
6940,Sold,Zieg,valko.et…,0.28Ξ ($127),"Dec 05, 2017",0.28,127,2017-12-05
6943,Sold,0x577ebc,934967,"82.99Ξ ($152,007)","Mar 18, 2021",82.99,152007,2021-03-18
6945,Sold,7293485,5237067,"19Ξ ($37,255)","Feb 21, 2021",19,37255,2021-02-21
6946,Sold,7293485,1449852,"8.94Ξ ($16,182)","Feb 14, 2021",8.94,16182,2021-02-14
6948,Sold,8533182,6689278,0.23Ξ ($53),"Jul 23, 2017",0.23,53,2017-07-23
6951,Sold,0x6fcade,0x1e0686,"21.21Ξ ($35,761)","Mar 23, 2021",21.21,35761,2021-03-23
6951,Sold,Carlini8,gaus,2.50Ξ ($873),"Sep 25, 2020",2.5,873,2020-09-25
6951,Sold,0x0553de,Carlini8,1.31Ξ ($263),"May 26, 2020",1.31,263,2020-05-26
6951,Sold,natealex,0x0553de,1.09Ξ ($225),"May 24, 2020",1.09,225,2020-05-24
6951,Sold,0x1a96af,natealex,0.58Ξ ($116),"May 14, 2020",0.58,116,2020-05-14
6952,Sold,Pranksy,redlione…,"8Ξ ($8,401)","Jan 13, 2021",8,8401,2021-01-13
6952,Sold,0xde0193,2pac,"4Ξ ($2,939)","Dec 31, 2020",4,2939,2020-12-31
6953,Sold,Deeze,0x596572,"19.50Ξ ($40,652)","Apr 09, 2021",19.5,40652,2021-04-09
6953,Sold,Pranksy,gaus,2.75Ξ ($960),"Sep 25, 2020",2.75,960,2020-09-25
6953,Sold,Hemba,Pranksy,2.30Ξ ($796),"Sep 24, 2020",2.3,796,2020-09-24
6956,Sold,0x0503ed,0xae7721,"8.50Ξ ($14,844)","Feb 17, 2021",8.5,14844,2021-02-17
6956,Sold,Durtseuq,0x0503ed,"7.50Ξ ($13,492)","Feb 16, 2021",7.5,13492,2021-02-16
6956,Sold,0x7f6ca7,Durtseuq,0.20Ξ ($48),"Sep 22, 2018",0.2,48,2018-09-22
6956,Sold,0xb6be4d,0x7f6ca7,0.09Ξ ($41),"Dec 05, 2017",0.09,41,2017-12-05
6962,Sold,0x577ebc,pelvis.e…,"12Ξ ($22,014)","Feb 15, 2021",12,22014,2021-02-15
6963,Sold,0x47d4f2,2614035,"32Ξ ($67,212)","Apr 05, 2021",32,67212,2021-04-05
6963,Sold,0x577ebc,4707570,"29Ξ ($52,720)","Mar 12, 2021",29,52720,2021-03-12
6965,Sold,0x03911f,0x99b57c,800Ξ ($1.54M),"Feb 19, 2021",800,1540000,2021-02-19
6965,Sold,Hemba,0x03911f,"4Ξ ($3,025)","Jan 01, 2018",4,3025,2018-01-01
6965,Sold,0x00bd3a,Hemba,"7.90Ξ ($2,125)","Jul 04, 2017",7.9,2125,2017-07-04
6965,Sold,straybit…,0x00bd3a,"4Ξ ($1,106)","Jul 03, 2017",4,1106,2017-07-03
6966,Sold,ddaavvee,0x717403,0.25Ξ ($164),"Dec 22, 2017",0.25,164,2017-12-22
6969,Sold,0xcecad6,theoverv…,1Ξ ($203),"May 22, 2020",1,203,2020-05-22
6974,Sold,55241,3112815,1Ξ ($206),"Aug 10, 2019",1,206,2019-08-10
6975,Sold,0x33b17a,0xb79157,"26Ξ ($44,972)","Mar 24, 2021",26,44972,2021-03-24
6975,Sold,0x3d0107,0x33b17a,"25.80Ξ ($44,780)","Mar 08, 2021",25.8,44780,2021-03-08
6975,Sold,chifoomi,0x3d0107,"5.80Ξ ($9,913)","Feb 05, 2021",5.8,9913,2021-02-05
6975,Sold,0x257e2b,chifoomi,"5.20Ξ ($1,966)","Oct 15, 2020",5.2,1966,2020-10-15
6975,Sold,FunBum69,0xb41f56,"4.99Ξ ($1,765)","Sep 27, 2020",4.99,1765,2020-09-27
6975,Sold,0xca105c,BumFun69,2.75Ξ ($656),"Jun 01, 2020",2.75,656,2020-06-01
6975,Sold,0xf0f068…,0xca105c,0.84Ξ ($138),"Jan 16, 2020",0.84,138,2020-01-16
6975,Sold,0xc00c2b,0xf0f068…,0.75Ξ ($123),"Jan 16, 2020",0.75,123,2020-01-16
6976,Sold,0x498f75,0xf4a3d5,"6.50Ξ ($2,259)","Oct 02, 2020",6.5,2259,2020-10-02
6976,Sold,DANNY,0x498f75,1Ξ ($400),"Aug 06, 2020",1,400,2020-08-06
6976,Sold,Hemba,DANNY,1Ξ ($191),"May 10, 2020",1,191,2020-05-10
6978,Sold,2340107,957165,"58Ξ ($124,512)","Apr 11, 2021",58,124512,2021-04-11
6978,Sold,16217741,4769884,"24Ξ ($45,652)","Feb 18, 2021",24,45652,2021-02-18
6979,Sold,9862885,284138,"45Ξ ($72,235)","Mar 25, 2021",45,72235,2021-03-25
6979,Sold,5966219,9862885,"10Ξ ($17,146)","Feb 06, 2021",10,17146,2021-02-06
6982,Sold,Spidymon…,0xea9724,"5.99Ξ ($7,419)","Jan 23, 2021",5.99,7419,2021-01-23
6982,Sold,0x00d7c9,TokenAng…,0.25Ξ ($44),"Sep 27, 2019",0.25,44,2019-09-27
6984,Sold,0x00d7c9,7435267,0.05Ξ ($28),"May 30, 2018",0.05,28,2018-05-30
6985,Sold,11976269,Ajiyl,0.09Ξ ($42),"Dec 04, 2017",0.09,42,2017-12-04
6987,Sold,5734076,5657750,"45.99Ξ ($83,818)","Mar 18, 2021",45.99,83818,2021-03-18
6989,Sold,0xce6969,aclCrypt…,"24.88Ξ ($36,562)","Feb 27, 2021",24.88,36562,2021-02-27
6989,Sold,0x3e17fa,0xce6969,"14.50Ξ ($29,083)","Feb 20, 2021",14.5,29083,2021-02-20
6989,Sold,Michel_M…,0x3e17fa,"3.70Ξ ($1,308)","Sep 26, 2020",3.7,1308,2020-09-26
6989,Sold,Carlini8,Michel_M…,"3Ξ ($1,034)","Sep 25, 2020",3,1034,2020-09-25
6989,Sold,DANNY,Carlini8,1.60Ξ ($321),"May 26, 2020",1.6,321,2020-05-26
6989,Sold,Hemba,DANNY,0.80Ξ ($162),"May 14, 2020",0.8,162,2020-05-14
6991,Sold,5734076,7187448,"26.99Ξ ($49,018)","Mar 12, 2021",26.99,49018,2021-03-12
6993,Sold,0xbae25a,0x84d34f,"21.49Ξ ($38,957)","Mar 11, 2021",21.49,38957,2021-03-11
6993,Sold,0x05c00c,0xbae25a,"20Ξ ($35,577)","Mar 11, 2021",20,35577,2021-03-11
6993,Sold,TweetyPi…,0x05c00c,0.78Ξ ($125),"Jan 16, 2020",0.78,125,2020-01-16
6993,Sold,Pranksy,TweetyPi…,0.45Ξ ($59),"Dec 31, 2019",0.45,59,2019-12-31
6993,Sold,0x00d7c9,Pranksy,0.25Ξ ($45),"Sep 02, 2019",0.25,45,2019-09-02
6994,Sold,0x7f3aff,0xd94be5,"75Ξ ($127,801)","Mar 28, 2021",75,127801,2021-03-28
6994,Sold,Pranksy,0x7f3aff,"75Ξ ($144,271)","Feb 19, 2021",75,144271,2021-02-19
6994,Sold,0x6611fe,Pranksy,"33Ξ ($55,341)","Feb 06, 2021",33,55341,2021-02-06
6995,Sold,Sweeshea…,0x3e1f1f,"23.90Ξ ($44,821)","Mar 14, 2021",23.9,44821,2021-03-14
6995,Sold,0x7f6ca7,Sweeshea…,0.18Ξ ($21),"Nov 29, 2018",0.18,21,2018-11-29
6995,Sold,0xbc081c,0x7f6ca7,0.16Ξ ($70),"Dec 10, 2017",0.16,70,2017-12-10
6996,Sold,0x515a82,45688,0.28Ξ ($75),"Jul 04, 2017",0.28,75,2017-07-04
6998,Sold,Hemba,0x94c1d7,0.20Ξ ($157),"Dec 18, 2017",0.2,157,2017-12-18
6999,Sold,8533182,9218204,0.10Ξ ($69),"Dec 14, 2017",0.1,69,2017-12-14
7000,Sold,6666831,11986211,"14.40Ξ ($27,310)","Feb 18, 2021",14.4,27310,2021-02-18
7000,Sold,13275108,6666831,"7.20Ξ ($12,572)","Feb 09, 2021",7.2,12572,2021-02-09
7001,Sold,0xcbd482,7435267,0.05Ξ ($14),"Jun 27, 2017",0.05,14,2017-06-27
7003,Sold,Michel_M…,0xba942b,"21.25Ξ ($33,169)","Feb 24, 2021",21.25,33169,2021-02-24
7003,Sold,0x033ee7,0x5d1226,"4.31Ξ ($5,787)","Jan 27, 2021",4.31,5787,2021-01-27
7003,Sold,0xe4c479,0x033ee7,"2.90Ξ ($1,031)","Sep 26, 2020",2.9,1031,2020-09-26
7003,Sold,Hemba,0xe4c479,"2.75Ξ ($1,046)","Sep 20, 2020",2.75,1046,2020-09-20
7005,Sold,0x4db1dd,0xe78de3,"21.99Ξ ($39,545)","Mar 21, 2021",21.99,39545,2021-03-21
7005,Sold,gaus,0x4db1dd,"21Ξ ($30,946)","Mar 05, 2021",21,30946,2021-03-05
7005,Sold,0x12c9c4,0x22fa8c,"22.99Ξ ($39,876)","Feb 22, 2021",22.99,39876,2021-02-22
7005,Sold,0x241ec7,0x12c9c4,"21Ξ ($35,871)","Feb 22, 2021",21,35871,2021-02-22
7005,Sold,0x3e17fa,0x241ec7,"8.50Ξ ($15,106)","Feb 17, 2021",8.5,15106,2021-02-17
7005,Sold,Pranksy,MrNFT,2.75Ξ ($948),"Sep 25, 2020",2.75,948,2020-09-25
7005,Sold,MrNFT,0x3e17fa,"2.98Ξ ($1,028)","Sep 25, 2020",2.98,1028,2020-09-25
7005,Sold,0x5aaeb9,Pranksy,2.29Ξ ($792),"Sep 24, 2020",2.29,792,2020-09-24
7005,Sold,Pranksy,0x5aaeb9,2.19Ξ ($757),"Sep 24, 2020",2.19,757,2020-09-24
7005,Sold,Hemba,Pranksy,1.80Ξ ($613),"Sep 22, 2020",1.8,613,2020-09-22
7007,Sold,wookie.e…,0x0e9aed,"55.55Ξ ($114,823)","Apr 08, 2021",55.55,114823,2021-04-08
7007,Sold,0x49432b,wookie.e…,"34Ξ ($62,226)","Mar 10, 2021",34,62226,2021-03-10
7008,Sold,0x1f5f63,0xf197ab,"17.50Ξ ($37,189)","Apr 03, 2021",17.5,37189,2021-04-03
7008,Sold,Carlini8,gaus,2.50Ξ ($873),"Sep 25, 2020",2.5,873,2020-09-25
7008,Sold,natealex,Carlini8,1.59Ξ ($598),"Sep 14, 2020",1.59,598,2020-09-14
7008,Sold,natealex,0x717403,0.05Ξ ($10),"May 21, 2020",0.05,10,2020-05-21
7008,Sold,0x1a96af,natealex,0.61Ξ ($122),"May 14, 2020",0.61,122,2020-05-14
7011,Sold,MrTpunks,0x29b1b2,"24Ξ ($46,753)","Feb 21, 2021",24,46753,2021-02-21
7011,Sold,jmg,MrTpunks…,"7.79Ξ ($2,788)","Sep 28, 2020",7.79,2788,2020-09-28
7011,Sold,0x00d7c9,jmg,0.70Ξ ($116),"Apr 06, 2019",0.7,116,2019-04-06
7012,Sold,0xdbc416,0x940a26,"26.50Ξ ($36,244)","Feb 28, 2021",26.5,36244,2021-02-28
7012,Sold,Pranksy,0xdbc416,2.49Ξ ($951),"Sep 18, 2020",2.49,951,2020-09-18
7012,Sold,TokenAng…,evkort,"6Ξ ($2,180)","Sep 13, 2020",6,2180,2020-09-13
7012,Sold,0xfb077c,TokenAng…,0.75Ξ ($125),"Jan 15, 2020",0.75,125,2020-01-15
7013,Sold,Loopify,0x3e17fa,"5.88Ξ ($7,291)","Jan 23, 2021",5.88,7291,2021-01-23
7013,Sold,Pranksy,0xaf5e63,0.99Ξ ($201),"May 07, 2020",0.99,201,2020-05-07
7013,Sold,0xe45df5,Pranksy,1.10Ξ ($195),"Jan 18, 2020",1.1,195,2020-01-18
7015,Sold,0x67e095,0xff70ec,"56Ξ ($89,687)","Mar 25, 2021",56,89687,2021-03-25
7015,Sold,Novo311,0x641cf1,"12Ξ ($7,544)","Dec 22, 2020",12,7544,2020-12-22
7018,Sold,52816,shilpixe…,"22.50Ξ ($43,197)","Feb 19, 2021",22.5,43197,2021-02-19
7019,Sold,0x3e17fa,0x44d93e,"12Ξ ($21,878)","Feb 15, 2021",12,21878,2021-02-15
7019,Sold,0xbfa319,0x3e17fa,"4.82Ξ ($1,713)","Sep 26, 2020",4.82,1713,2020-09-26
7019,Sold,ChrisR,0xbfa319,0.67Ξ ($181),"Feb 16, 2020",0.67,181,2020-02-16
7019,Sold,0x00d7c9,ChrisR,0.50Ξ ($85),"May 09, 2019",0.5,85,2019-05-09
7022,Sold,0x58164b,CyrusOld,0.09Ξ ($56),"Apr 22, 2018",0.09,56,2018-04-22
7023,Sold,0x846d55,15249747,"36.33Ξ ($55,526)","Feb 23, 2021",36.33,55526,2021-02-23
7025,Sold,0x29b1b2,0x4db1dd,"21Ξ ($29,946)","Mar 01, 2021",21,29946,2021-03-01
7025,Sold,kyloren,0x29b1b2,"5.10Ξ ($7,287)","Jan 25, 2021",5.1,7287,2021-01-25
7025,Sold,0xe754d1,kyloren,"5.10Ξ ($1,804)","Sep 29, 2020",5.1,1804,2020-09-29
7025,Sold,0xb40dac,0xe754d1,"3.45Ξ ($1,241)","Sep 28, 2020",3.45,1241,2020-09-28
7025,Sold,0x5e7ee9,0xb40dac,2.60Ξ ($913),"Sep 24, 2020",2.6,913,2020-09-24
7025,Sold,0xe4c479,0x5e7ee9,2.50Ξ ($865),"Sep 24, 2020",2.5,865,2020-09-24
7025,Sold,Hemba,0xe4c479,2.30Ξ ($779),"Sep 24, 2020",2.3,779,2020-09-24
7028,Sold,0x005700,warrbos.…,0.05Ξ ($21),"Nov 29, 2017",0.05,21,2017-11-29
7032,Sold,0x387405,0xbe7516,"3.95Ξ ($4,882)","Jan 18, 2021",3.95,4882,2021-01-18
7033,Sold,0x6d9d10,0xa0a611,"18.75Ξ ($31,829)","Mar 28, 2021",18.75,31829,2021-03-28
7033,Sold,Bombard,0x6d9d10,"18Ξ ($30,702)","Mar 27, 2021",18,30702,2021-03-27
7033,Sold,0xca8fe4,Bombard,"16Ξ ($27,238)","Mar 27, 2021",16,27238,2021-03-27
7034,Sold,0x63d325,0xaa33f7,"4Ξ ($1,741)","Nov 07, 2020",4,1741,2020-11-07
7034,Sold,Assmonke…,0x42306d,0.83Ξ ($188),"Feb 28, 2020",0.83,188,2020-02-28
7034,Sold,shilpixe…,Assmonke…,0.85Ξ ($142),"Jan 21, 2020",0.85,142,2020-01-21
7035,Sold,12559129,vibedog,1.05Ξ ($200),"Feb 03, 2020",1.05,200,2020-02-03
7035,Sold,55241,0xbfa319,0.10Ξ ($38),"Nov 22, 2017",0.1,38,2017-11-22
7036,Sold,0x00d7c9,Roses,0.40Ξ ($100),"May 24, 2019",0.4,100,2019-05-24
7037,Sold,55241,7823584,0.05Ξ ($26),"May 28, 2018",0.05,26,2018-05-28
7040,Sold,16033653,8940509,"6.50Ξ ($10,774)","Feb 08, 2021",6.5,10774,2021-02-08
7040,Sold,11976269,16033653,0.09Ξ ($42),"Dec 04, 2017",0.09,42,2017-12-04
7045,Sold,14548427,6471110,"29.99Ξ ($61,700)","Apr 08, 2021",29.99,61700,2021-04-08
7045,Sold,1471195,14548427,"23.50Ξ ($40,853)","Mar 12, 2021",23.5,40853,2021-03-12
7049,Sold,Hemba,7478,1.10Ξ ($378),"Jul 31, 2020",1.1,378,2020-07-31
7051,Sold,0xdbc416,0x14ae81,"18Ξ ($36,028)","Feb 20, 2021",18,36028,2021-02-20
7051,Sold,helpchai…,0xdbc416,"4.50Ξ ($5,625)","Jan 08, 2021",4.5,5625,2021-01-08
7051,Sold,Hemba,0x287bd6,0.80Ξ ($191),"Mar 06, 2020",0.8,191,2020-03-06
7052,Sold,8533182,10361245,0.20Ξ ($76),"Apr 01, 2018",0.2,76,2018-04-01
7053,Sold,8702240,5117657,"26Ξ ($40,967)","Mar 04, 2021",26,40967,2021-03-04
7053,Sold,13275108,8702240,"23.99Ξ ($37,454)","Mar 02, 2021",23.99,37454,2021-03-02
7054,Sold,Dude_Nak…,0x1fafa6,0.60Ξ ($153),"Feb 16, 2020",0.6,153,2020-02-16
7054,Sold,0x8234be,Dude_Nak…,0.10Ξ ($54),"Mar 22, 2018",0.1,54,2018-03-22
7056,Sold,MadMax,renaissa…,"33.30Ξ ($59,244)","Feb 22, 2021",33.3,59244,2021-02-22
7056,Sold,niwin,MadMax,"19.90Ξ ($38,462)","Feb 21, 2021",19.9,38462,2021-02-21
7056,Sold,0x6f4a2d,niwin,"18.10Ξ ($34,327)","Feb 18, 2021",18.1,34327,2021-02-18
7060,Sold,11446499,7072133,"39.99Ξ ($83,404)","Apr 06, 2021",39.99,83404,2021-04-06
7060,Sold,755965,11446499,"38.50Ξ ($69,188)","Mar 21, 2021",38.5,69188,2021-03-21
7062,Sold,Cyborg,Cyrus,0.30Ξ ($32),"Feb 01, 2019",0.3,32,2019-02-01
7062,Sold,0xbc081c,Cyborg,0.30Ξ ($68),"Jul 24, 2017",0.3,68,2017-07-24
7065,Sold,10074244,4069370,"5Ξ ($1,729)","Sep 24, 2020",5,1729,2020-09-24
7069,Sold,15430239,6369491,"14.89Ξ ($29,128)","Feb 19, 2021",14.89,29128,2021-02-19
7069,Sold,509418,15430239,"10.50Ξ ($19,257)","Feb 17, 2021",10.5,19257,2021-02-17
7069,Sold,5734076,509418,"9.50Ξ ($17,127)","Feb 17, 2021",9.5,17127,2021-02-17
7070,Sold,Hemba,0xaf5e63,1.70Ξ ($337),"May 21, 2020",1.7,337,2020-05-21
7072,Sold,alphab.e…,0xb0dafc,"29Ξ ($54,098)","Mar 14, 2021",29,54098,2021-03-14
7072,Sold,0x84c920,alphab.e…,"21.98Ξ ($29,632)","Feb 28, 2021",21.98,29632,2021-02-28
7072,Sold,0xb155c5,0x84c920,"24Ξ ($32,355)","Feb 28, 2021",24,32355,2021-02-28
7072,Sold,0x565496,0xb155c5,"22Ξ ($42,170)","Feb 22, 2021",22,42170,2021-02-22
7072,Sold,0x3e099a,0x565496,"9Ξ ($9,606)","Jan 13, 2021",9,9606,2021-01-13
7072,Sold,2pac,0x3e099a,"5.55Ξ ($4,000)","Dec 28, 2020",5.55,4000,2020-12-28
7072,Sold,0xff40d2,2pac,"3.85Ξ ($2,351)","Dec 21, 2020",3.85,2351,2020-12-21
7072,Sold,MrTpunks…,0xff40d2,"5.75Ξ ($2,244)","Oct 31, 2020",5.75,2244,2020-10-31
7072,Sold,0x4fa27c,MrTpunks…,"5Ξ ($2,067)","Oct 24, 2020",5,2067,2020-10-24
7072,Sold,0xb60df4,0x4fa27c,"6Ξ ($2,230)","Oct 11, 2020",6,2230,2020-10-11
7072,Sold,Pranksy,0xb60df4,"5.99Ξ ($2,108)","Oct 04, 2020",5.99,2108,2020-10-04
7072,Sold,Carlini8,Pranksy,"5Ξ ($1,759)","Oct 04, 2020",5,1759,2020-10-04
7072,Sold,KittyGr_…,Carlini8,"4.50Ξ ($1,583)","Oct 04, 2020",4.5,1583,2020-10-04
7072,Sold,0x00d7c9,KittyGr_…,0.05Ξ ($30),"Jun 08, 2018",0.05,30,2018-06-08
7073,Sold,14548427,8704847,"20.49Ξ ($37,144)","Mar 11, 2021",20.49,37144,2021-03-11
7073,Sold,6689278,14548427,"10.99Ξ ($19,143)","Feb 15, 2021",10.99,19143,2021-02-15
7073,Sold,14215174,6689278,0.30Ξ ($89),"Aug 09, 2017",0.3,89,2017-08-09
7073,Sold,2233870,14215174,0.34Ξ ($78),"Jul 20, 2017",0.34,78,2017-07-20
7073,Sold,12322844,2233870,0.30Ξ ($58),"Jul 19, 2017",0.3,58,2017-07-19
7074,Sold,0x13579f,0xca37d8,"52Ξ ($98,291)","Mar 13, 2021",52,98291,2021-03-13
7074,Sold,0x0503ed,0x13579f,"45Ξ ($81,589)","Mar 12, 2021",45,81589,2021-03-12
7074,Sold,0xfba169,0x0503ed,"45Ξ ($61,546)","Feb 28, 2021",45,61546,2021-02-28
7075,Sold,Zonked,Carlini8,"16.99Ξ ($35,119)","Apr 08, 2021",16.99,35119,2021-04-08
7075,Sold,Pranksy,Zonked,"16Ξ ($33,658)","Apr 05, 2021",16,33658,2021-04-05
7075,Sold,0x267e95,Pranksy,"26Ξ ($47,014)","Mar 12, 2021",26,47014,2021-03-12
7075,Sold,0x577ebc,0x267e95,"21.49Ξ ($39,207)","Mar 11, 2021",21.49,39207,2021-03-11
7076,Sold,0x29b1b2,0xb1adce,"59Ξ ($101,083)","Feb 22, 2021",59,101083,2021-02-22
7076,Sold,Michel_M…,0x29b1b2,"29.50Ξ ($37,861)","Jan 28, 2021",29.5,37861,2021-01-28
7076,Sold,0x98cfea,0x34e801,"2Ξ ($1,300)","Dec 20, 2020",2,1300,2020-12-20
7078,Sold,48442,0x00d7c9,0.39Ξ ($96),"Jul 08, 2017",0.39,96,2017-07-08
7078,Sold,15808747,0x00bd3a,0.19Ξ ($56),"Jun 29, 2017",0.19,56,2017-06-29
7080,Sold,0xf4239e,gaus,"3.50Ξ ($1,252)","Sep 28, 2020",3.5,1252,2020-09-28
7080,Sold,Hemba,0xf4239e,2.30Ξ ($795),"Sep 24, 2020",2.3,795,2020-09-24
7087,Sold,niwin,0x36a5bc,"7Ξ ($9,331)","Jan 28, 2021",7,9331,2021-01-28
7087,Sold,0x5d1226,niwin,"6.33Ξ ($8,124)","Jan 28, 2021",6.33,8124,2021-01-28
7087,Sold,0x087173,0x5d1226,"5.89Ξ ($7,255)","Jan 24, 2021",5.89,7255,2021-01-24
7087,Sold,Michel_M…,0x087173,"3.99Ξ ($1,372)","Sep 25, 2020",3.99,1372,2020-09-25
7087,Sold,MrTpunks…,Michel_M…,1.25Ξ ($533),"Aug 14, 2020",1.25,533,2020-08-14
7087,Sold,Hemba,MrTpunks,1.40Ξ ($274),"May 15, 2020",1.4,274,2020-05-15
7091,Sold,6689278,231014,"25Ξ ($45,392)","Mar 19, 2021",25,45392,2021-03-19
7094,Sold,Carlini8,0x701f37,"9.90Ξ ($17,150)","Feb 15, 2021",9.9,17150,2021-02-15
7094,Sold,nostro,Carlini8,"5Ξ ($3,213)","Dec 26, 2020",5,3213,2020-12-26
7094,Sold,0x9ce03d,nostro,"4.80Ξ ($1,784)","Oct 11, 2020",4.8,1784,2020-10-11
7094,Sold,MANAmans…,0x9ce03d,"4.40Ξ ($1,651)","Oct 10, 2020",4.4,1651,2020-10-10
7094,Sold,redlione…,MANAmans…,"4.89Ξ ($1,731)","Oct 06, 2020",4.89,1731,2020-10-06
7094,Sold,0x624394,redlione…,"5.59Ξ ($1,960)","Oct 03, 2020",5.59,1960,2020-10-03
7094,Sold,GoWest23,0x624394,"5.99Ξ ($2,132)","Sep 30, 2020",5.99,2132,2020-09-30
7094,Sold,Pranksy,GoWest23,0.50Ξ ($67),"Jan 04, 2020",0.5,67,2020-01-04
7094,Sold,0x00d7c9,Pranksy,0.25Ξ ($45),"Sep 02, 2019",0.25,45,2019-09-02
7096,Sold,👱‍♀.eth,0x0e9aed,"17Ξ ($35,040)","Apr 08, 2021",17,35040,2021-04-08
7096,Sold,Pranksy,👱‍♀.eth,"16Ξ ($33,920)","Apr 05, 2021",16,33920,2021-04-05
7096,Sold,TokenAng…,Pranksy,"26Ξ ($47,014)","Mar 12, 2021",26,47014,2021-03-12
7096,Sold,0x670d75,TokenAng…,2Ξ ($403),"May 26, 2020",2,403,2020-05-26
7102,Sold,BitcoinG…,j1mmy,2.25Ξ ($785),"Sep 09, 2020",2.25,785,2020-09-09
7102,Sold,Pranksy,BitcoinG…,1.69Ξ ($338),"May 22, 2020",1.69,338,2020-05-22
7102,Sold,0x00d7c9,Pranksy,0.40Ξ ($118),"Jun 21, 2019",0.4,118,2019-06-21
7103,Sold,5734076,12982947,"21.49Ξ ($38,227)","Mar 11, 2021",21.49,38227,2021-03-11
7106,Sold,15010895,6369491,"18.87Ξ ($36,696)","Feb 20, 2021",18.87,36696,2021-02-20
7106,Sold,13275108,15010895,"8.50Ξ ($15,266)","Feb 13, 2021",8.5,15266,2021-02-13
7107,Sold,0x398646,0xbf8afa,"17.60Ξ ($32,386)","Feb 17, 2021",17.6,32386,2021-02-17
7107,Sold,0x13816f,0x398646,"8.40Ξ ($15,189)","Feb 14, 2021",8.4,15189,2021-02-14
7107,Sold,evkort,iandoz,"5.75Ξ ($1,997)","Oct 04, 2020",5.75,1997,2020-10-04
7107,Sold,0x11c9a7,evkort,"5.15Ξ ($1,870)","Sep 28, 2020",5.15,1870,2020-09-28
7107,Sold,smbros,0x11c9a7,"4.81Ξ ($1,721)","Sep 28, 2020",4.81,1721,2020-09-28
7107,Sold,0x00d7c9,snowfro,0.50Ξ ($113),"Aug 07, 2019",0.5,113,2019-08-07
7110,Sold,0xfb077c,0x4c1bd9…,1Ξ ($213),"May 09, 2020",1,213,2020-05-09
7111,Sold,11004839,0xaf5e63,"5Ξ ($1,021)","May 05, 2020",5,1021,2020-05-05
7112,Sold,Cyborg,0x9e199d,0.20Ξ ($39),"Oct 12, 2018",0.2,39,2018-10-12
7113,Sold,Party,0xb9afc8,"5.50Ξ ($6,823)","Jan 27, 2021",5.5,6823,2021-01-27
7113,Sold,0x4c292e,Party,"4.50Ξ ($5,782)","Jan 27, 2021",4.5,5782,2021-01-27
7113,Sold,0x00d7c9,0x4c292e,0.10Ξ ($28),"Aug 13, 2018",0.1,28,2018-08-13
7116,Sold,0x5dcb99,0xdae48d,"22Ξ ($39,561)","Mar 12, 2021",22,39561,2021-03-12
7116,Sold,Pranksy,DANNY,1.20Ξ ($291),"Jun 23, 2020",1.2,291,2020-06-23
7116,Sold,0xe96c3e,Pranksy,0.85Ξ ($170),"May 15, 2020",0.85,170,2020-05-15
7116,Sold,0x7f6ca7,el,0.25Ξ ($69),"Aug 26, 2018",0.25,69,2018-08-26
7116,Sold,0xb6be4d,0x7f6ca7,0.09Ξ ($43),"Nov 26, 2017",0.09,43,2017-11-26
7117,Sold,0x6dabf8,0x7f3560,"23Ξ ($35,215)","Mar 05, 2021",23,35215,2021-03-05
7117,Sold,0x84c920,0x6dabf8,"20.90Ξ ($30,943)","Mar 05, 2021",20.9,30943,2021-03-05
7117,Sold,gaus,0x84c920,"21Ξ ($30,946)","Mar 05, 2021",21,30946,2021-03-05
7117,Sold,0xde0193,0xff40d2,"4Ξ ($2,931)","Dec 31, 2020",4,2931,2020-12-31
7118,Sold,3648885,Pixls,1Ξ ($205),"May 22, 2020",1,205,2020-05-22
7118,Sold,11976269,0x37ad75,0.09Ξ ($27),"Nov 04, 2017",0.09,27,2017-11-04
7119,Sold,Cyborg,0xe67521,0.32Ξ ($77),"Jul 09, 2017",0.32,77,2017-07-09
7120,Sold,Pranksy,Collecti…,2.19Ξ ($756),"Sep 24, 2020",2.19,756,2020-09-24
7120,Sold,FOMOgerb…,Pranksy,1.80Ξ ($613),"Sep 22, 2020",1.8,613,2020-09-22
7120,Sold,Pranksy,FOMOgerb…,1.88Ξ ($691),"Sep 15, 2020",1.88,691,2020-09-15
7120,Sold,Goop,alxo,0.26Ξ ($40),"Nov 23, 2019",0.26,40,2019-11-23
7120,Sold,juggerna…,Goop,0.25Ξ ($38),"Nov 23, 2019",0.25,38,2019-11-23
7123,Sold,0xa7eba7,Pranksy,"12.90Ξ ($21,060)","Feb 08, 2021",12.9,21060,2021-02-08
7123,Sold,0x5b098b,0xa7eba7,"7.60Ξ ($13,278)","Feb 05, 2021",7.6,13278,2021-02-05
7123,Sold,Hemba,0x5b098b,0.16Ξ ($17),"Nov 26, 2018",0.16,17,2018-11-26
7124,Sold,5098227,Ravachol,2Ξ ($384),"Apr 27, 2020",2,384,2020-04-27
7124,Sold,55241,0x4dcaf3,0.40Ξ ($95),"Jul 09, 2017",0.4,95,2017-07-09
7126,Sold,charley,0x0738c7,"15.99Ξ ($30,698)","Feb 19, 2021",15.99,30698,2021-02-19
7126,Sold,0x48db19,evkort,"3.90Ξ ($2,395)","Dec 22, 2020",3.9,2395,2020-12-22
7128,Sold,0x8234be,Kenney,0.25Ξ ($216),"Mar 04, 2018",0.25,216,2018-03-04
7129,Sold,0x2e5ccf,0xfaa550,"51Ξ ($94,255)","Mar 14, 2021",51,94255,2021-03-14
7129,Sold,0x691b87,0x2e5ccf,"48.99Ξ ($86,523)","Mar 12, 2021",48.99,86523,2021-03-12
7129,Sold,jesterbo…,0xeb725f,"44.95Ξ ($88,682)","Feb 21, 2021",44.95,88682,2021-02-21
7130,Sold,4106973,0x097761,"12.20Ξ ($23,486)","Feb 19, 2021",12.2,23486,2021-02-19
7130,Sold,9862885,0x80d449,"6.40Ξ ($11,494)","Feb 13, 2021",6.4,11494,2021-02-13
7130,Sold,422151,0x967ee5,"5.89Ξ ($7,972)","Jan 31, 2021",5.89,7972,2021-01-31
7131,Sold,0x0713a6,0xc4b9d2,"22.49Ξ ($46,001)","Apr 07, 2021",22.49,46001,2021-04-07
7131,Sold,TweetyPi…,0x0713a6,"13.75Ξ ($8,505)","Dec 23, 2020",13.75,8505,2020-12-23
7131,Sold,0x5dea63,TweetyPi…,"5Ξ ($2,542)","Nov 20, 2020",5,2542,2020-11-20
7132,Sold,aviexkak…,0x2f06ff,"5.50Ξ ($9,609)","Feb 09, 2021",5.5,9609,2021-02-09
7132,Sold,0x2d9d72,0x6f6101,"4.20Ξ ($2,620)","Dec 22, 2020",4.2,2620,2020-12-22
7132,Sold,NeonNFT,0x2d9d72,"4.40Ξ ($1,645)","Oct 11, 2020",4.4,1645,2020-10-11
7132,Sold,MANAmans…,NeonNFT,"4.40Ξ ($1,601)","Oct 09, 2020",4.4,1601,2020-10-09
7132,Sold,coinduph…,MANAmans…,"4.57Ξ ($1,642)","Sep 28, 2020",4.57,1642,2020-09-28
7132,Sold,0x1a96af,coinduph…,0.59Ξ ($103),"Apr 18, 2020",0.59,103,2020-04-18
7134,Sold,8533182,13542797,0.23Ξ ($151),"Dec 12, 2017",0.23,151,2017-12-12
7136,Sold,hellogar…,0xb166dd,"12.50Ξ ($22,093)","Feb 16, 2021",12.5,22093,2021-02-16
7136,Sold,0xa7eba7,hellogar…,"9.69Ξ ($17,609)","Feb 14, 2021",9.69,17609,2021-02-14
7142,Sold,Thing,Dude_Nak…,3Ξ ($660),"Feb 07, 2020",3,660,2020-02-07
7142,Sold,0x5b098b,Thing,2.22Ξ ($364),"Jan 26, 2020",2.22,364,2020-01-26
7142,Sold,Cyborg,0x5b098b,0.21Ξ ($46),"Aug 04, 2017",0.21,46,2017-08-04
7145,Sold,sov,j1mmy,"9Ξ ($3,265)","Sep 28, 2020",9,3265,2020-09-28
7146,Sold,3699717,alphab.e…,"20.02Ξ ($29,504)","Mar 05, 2021",20.02,29504,2021-03-05
7147,Sold,OnlyToas…,0xc11192,"12.05Ξ ($23,028)","Feb 19, 2021",12.05,23028,2021-02-19
7147,Sold,0xf1b658,OnlyToas…,"12Ξ ($22,931)","Feb 19, 2021",12,22931,2021-02-19
7147,Sold,EliteCat…,0xf1b658,"10.49Ξ ($18,928)","Feb 14, 2021",10.49,18928,2021-02-14
7147,Sold,Pranksy,GoWest23,0.50Ξ ($67),"Jan 04, 2020",0.5,67,2020-01-04
7147,Sold,0x00d7c9,Pranksy,0.25Ξ ($45),"Sep 02, 2019",0.25,45,2019-09-02
7148,Sold,0x22a178,3641651,"23Ξ ($48,825)","Apr 10, 2021",23,48825,2021-04-10
7148,Sold,0xab3e45,2269560,"19.90Ξ ($35,335)","Mar 11, 2021",19.9,35335,2021-03-11
7148,Sold,0x00d7c9,27849,0.50Ξ ($88),"Sep 04, 2019",0.5,88,2019-09-04
7153,Sold,Hemba,Kenney,0.17Ξ ($167),"Jan 23, 2018",0.17,167,2018-01-23
7154,Sold,14549395,9748951,0.18Ξ ($207),"Jan 20, 2018",0.18,207,2018-01-20
7155,Sold,0x31f02e,0x961d63,"14Ξ ($27,429)","Feb 20, 2021",14,27429,2021-02-20
7155,Sold,Hemba,0x31f02e,1.60Ξ ($594),"Sep 12, 2020",1.6,594,2020-09-12
7156,Sold,0x00d7c9,Snowfro,0.70Ξ ($116),"Apr 06, 2019",0.7,116,2019-04-06
7157,Sold,Pranksy,0x4136e3,0.30Ξ ($54),"Oct 13, 2019",0.3,54,2019-10-13
7157,Sold,ark1,Pranksy,0.25Ξ ($53),"Jul 29, 2019",0.25,53,2019-07-29
7158,Sold,Dude_Nak…,7478,0.80Ξ ($205),"Feb 12, 2020",0.8,205,2020-02-12
7158,Sold,Pranksy,Dude_Nak…,0.60Ξ ($79),"Jan 01, 2020",0.6,79,2020-01-01
7158,Sold,jomessin,Pranksy,0.32Ξ ($47),"Dec 09, 2019",0.32,47,2019-12-09
7158,Sold,0x00d7c9,jomessin,0.10Ξ ($51),"May 28, 2018",0.1,51,2018-05-28
7159,Sold,5734076,8704847,"20.49Ξ ($37,144)","Mar 11, 2021",20.49,37144,2021-03-11
7160,Sold,0x48db19,0x11c9a7,"3.75Ξ ($2,350)","Dec 22, 2020",3.75,2350,2020-12-22
7162,Sold,0x62bdc6,11844417,"38Ξ ($67,323)","Mar 22, 2021",38,67323,2021-03-22
7162,Sold,0x1672db,6471110,"44Ξ ($78,252)","Mar 15, 2021",44,78252,2021-03-15
7163,Sold,11621829,5294263,"43Ξ ($75,161)","Mar 12, 2021",43,75161,2021-03-12
7163,Sold,1471195,11621829,"36Ξ ($62,583)","Mar 12, 2021",36,62583,2021-03-12
7164,Sold,tonyherr…,0xf2565f,"6.50Ξ ($8,801)","Jan 30, 2021",6.5,8801,2021-01-30
7164,Sold,0x0713a6,tonyherr…,"5.20Ξ ($2,025)","Oct 12, 2020",5.2,2025,2020-10-12
7164,Sold,Hemba,0x0713a6,1.55Ξ ($593),"Sep 14, 2020",1.55,593,2020-09-14
7165,Sold,Hemba,0x27c79a,1.10Ξ ($222),"May 22, 2020",1.1,222,2020-05-22
7168,Sold,755965,7962691,"38.50Ξ ($69,127)","Mar 21, 2021",38.5,69127,2021-03-21
7170,Sold,55241,9483859,0.05Ξ ($28),"May 30, 2018",0.05,28,2018-05-30
7171,Sold,Zieg,Shrugs,0.20Ξ ($265),"Jan 14, 2018",0.2,265,2018-01-14
7177,Sold,5966219,1790008,"31Ξ ($50,458)","Feb 24, 2021",31,50458,2021-02-24
7178,Sold,0xb44969,0xe8aea1,"6.10Ξ ($11,263)","Feb 13, 2021",6.1,11263,2021-02-13
7178,Sold,0x3e17fa,0xbf6ccf,"3.50Ξ ($2,191)","Dec 22, 2020",3.5,2191,2020-12-22
7178,Sold,0xb40dac,0x3e17fa,"3.45Ξ ($1,243)","Sep 27, 2020",3.45,1243,2020-09-27
7178,Sold,0x5e7ee9,0xb40dac,2.70Ξ ($948),"Sep 24, 2020",2.7,948,2020-09-24
7178,Sold,Hemba,0x5e7ee9,2.30Ξ ($796),"Sep 24, 2020",2.3,796,2020-09-24
7179,Sold,NeonNFT,0x48db19,"4.95Ξ ($8,086)","Feb 08, 2021",4.95,8086,2021-02-08
7179,Sold,0x43b89f,NeonNFT,"4.43Ξ ($7,046)","Feb 08, 2021",4.43,7046,2021-02-08
7179,Sold,0x005700,0x43b89f,0.10Ξ ($35),"Aug 28, 2017",0.1,35,2017-08-28
7181,Sold,Pixls,0xc69ae4,1.23Ξ ($246),"May 26, 2020",1.23,246,2020-05-26
7181,Sold,satman,Pixls,1.20Ξ ($240),"May 26, 2020",1.2,240,2020-05-26
7181,Sold,ross_VRO…,satman,0.59Ξ ($118),"Mar 10, 2020",0.59,118,2020-03-10
7181,Sold,Goop,ross_VRO…,0.54Ξ ($77),"Jan 07, 2020",0.54,77,2020-01-07
7181,Sold,blocktop…,Goop,0.50Ξ ($72),"Jan 07, 2020",0.5,72,2020-01-07
7181,Sold,0x0a4eaf…,blocktop…,0.20Ξ ($41),"Oct 23, 2018",0.2,41,2018-10-23
7181,Sold,0x005700,0x0a4eaf…,0.18Ξ ($53),"Sep 12, 2017",0.18,53,2017-09-12
7182,Sold,VonMises,0xe5e771,"8.99Ξ ($3,240)","Sep 27, 2020",8.99,3240,2020-09-27
7182,Sold,Hemba,VonMises,1.15Ξ ($209),"Apr 22, 2020",1.15,209,2020-04-22
7184,Sold,6249972,3045016,"20.50Ξ ($36,677)","Mar 11, 2021",20.5,36677,2021-03-11
7185,Sold,55241,7435267,0.05Ξ ($26),"May 28, 2018",0.05,26,2018-05-28
7186,Sold,5858674,13490252,"27.50Ξ ($37,611)","Feb 28, 2021",27.5,37611,2021-02-28
7186,Sold,4774681,5858674,"25Ξ ($40,964)","Feb 24, 2021",25,40964,2021-02-24
7190,Sold,0x097761,0xcfd9cc,"19Ξ ($34,330)","Mar 10, 2021",19,34330,2021-03-10
7190,Sold,0x6611fe,0x097761,"18.50Ξ ($33,730)","Mar 09, 2021",18.5,33730,2021-03-09
7191,Sold,0x585f98,7823584,"1.60Ξ ($2,046)","Jan 15, 2018",1.6,2046,2018-01-15
7192,Sold,755965,15904564,"23.99Ξ ($43,980)","Mar 20, 2021",23.99,43980,2021-03-20
7195,Sold,0x67edd0,0x23b50b,"31Ξ ($56,026)","Mar 12, 2021",31,56026,2021-03-12
7195,Sold,OnlyToas…,0x67edd0,"24Ξ ($34,859)","Feb 23, 2021",24,34859,2021-02-23
7195,Sold,renaissa…,OnlyToas…,"23.50Ξ ($37,302)","Feb 23, 2021",23.5,37302,2021-02-23
7195,Sold,0x231707,renaissa…,"5Ξ ($1,819)","Sep 28, 2020",5,1819,2020-09-28
7197,Sold,15808747,7435267,0.20Ξ ($57),"Jun 27, 2017",0.2,57,2017-06-27
7198,Sold,0x00d7c9,0x00bd3a,0.30Ξ ($62),"Jul 10, 2017",0.3,62,2017-07-10
7200,Sold,0xbfa319,WuTangCl…,"6.25Ξ ($2,171)","Oct 04, 2020",6.25,2171,2020-10-04
7200,Sold,Dude_Nak…,0xbfa319,0.95Ξ ($257),"Feb 16, 2020",0.95,257,2020-02-16
7200,Sold,0x58164b,Dude_Nak…,0.06Ξ ($45),"May 07, 2018",0.06,45,2018-05-07
7203,Sold,55241,7823584,0.05Ξ ($26),"May 28, 2018",0.05,26,2018-05-28
7204,Sold,55241,stazie,0.50Ξ ($127),"May 30, 2019",0.5,127,2019-05-30
7205,Sold,733437,1635577,0.40Ξ ($82),"Jul 10, 2017",0.4,82,2017-07-10
7208,Sold,Hemba,PB,1.60Ξ ($335),"May 17, 2020",1.6,335,2020-05-17
7209,Sold,TokenAng…,0x99b57c,"41Ξ ($74,576)","Mar 09, 2021",41,74576,2021-03-09
7209,Sold,0x07c5ea,TokenAng…,"13.90Ξ ($24,513)","Feb 15, 2021",13.9,24513,2021-02-15
7209,Sold,0xd93033,0x07c5ea,"12Ξ ($21,022)","Feb 15, 2021",12,21022,2021-02-15
7210,Sold,733437,gr8wxl,0.29Ξ ($65),"Aug 03, 2017",0.29,65,2017-08-03
7212,Sold,0xd8e806,jmg,0.15Ξ ($46),"Oct 31, 2017",0.15,46,2017-10-31
7212,Sold,0x22ff03,0xd8e806,0.15Ξ ($46),"Aug 11, 2017",0.15,46,2017-08-11
7213,Sold,0x701f37,5333869,"44Ξ ($78,393)","Mar 11, 2021",44,78393,2021-03-11
7213,Sold,0x577ebc,7348023,"16.50Ξ ($27,410)","Feb 06, 2021",16.5,27410,2021-02-06
7215,Sold,Carlini8,0xc5b4e3,2.50Ξ ($878),"Sep 24, 2020",2.5,878,2020-09-24
7215,Sold,Hemba,Carlini8,1.90Ξ ($714),"Sep 14, 2020",1.9,714,2020-09-14
7216,Sold,3769926,16740588,"28Ξ ($47,204)","Mar 27, 2021",28,47204,2021-03-27
7216,Sold,13275108,3769926,"27Ξ ($48,478)","Mar 21, 2021",27,48478,2021-03-21
7219,Sold,0xabf107,0xf4b4a5,"100Ξ ($188,122)","Mar 15, 2021",100,188122,2021-03-15
7219,Sold,Pranksy,0xf1b658,"70Ξ ($101,170)","Feb 28, 2021",70,101170,2021-02-28
7219,Sold,0x577ebc,Pranksy,"23.85Ξ ($38,358)","Feb 04, 2021",23.85,38358,2021-02-04
7222,Sold,0xca8fe4,6155996,"19.99Ξ ($33,747)","Mar 28, 2021",19.99,33747,2021-03-28
7223,Sold,6827056,7435267,0.25Ξ ($72),"Jun 27, 2017",0.25,72,2017-06-27
7225,Sold,0xca8fe4,14680625,"19Ξ ($32,708)","Mar 28, 2021",19,32708,2021-03-28
7226,Sold,zonted,0xddb92a,"15Ξ ($27,602)","Feb 18, 2021",15,27602,2021-02-18
7226,Sold,Davicio,zonted,1.99Ξ ($737),"Sep 12, 2020",1.99,737,2020-09-12
7226,Sold,shilpixe…,Davicio,1Ξ ($202),"May 22, 2020",1,202,2020-05-22
7227,Sold,0x00d7c9,3847478,0.10Ξ ($47),"Jul 04, 2018",0.1,47,2018-07-04
7232,Sold,22272,12379106,0.10Ξ ($93),"Jan 03, 2018",0.1,93,2018-01-03
7234,Sold,14966261,8669529,0.90Ξ ($225),"May 24, 2019",0.9,225,2019-05-24
7235,Sold,ross_VRO…,0xaf5e63,1.50Ξ ($314),"Apr 29, 2020",1.5,314,2020-04-29
7235,Sold,jmg,ross_VRO…,0.89Ξ ($104),"Dec 27, 2018",0.89,104,2018-12-27
7235,Sold,0x00d7c9,0x00bd3a,0.30Ξ ($97),"Aug 21, 2017",0.3,97,2017-08-21
7238,Sold,0xd71a41,0x9224bb,"2.90Ξ ($1,866)","Dec 18, 2020",2.9,1866,2020-12-18
7238,Sold,cryptosa…,0xd71a41,"2.69Ξ ($1,563)","Nov 25, 2020",2.69,1563,2020-11-25
7238,Sold,ChrisR,cryptosa…,1.94Ξ ($736),"Sep 18, 2020",1.94,736,2020-09-18
7238,Sold,0x1a96af,Pranksy,0.92Ξ ($186),"May 22, 2020",0.92,186,2020-05-22
7240,Sold,55241,xvii,0.05Ξ ($29),"May 31, 2018",0.05,29,2018-05-31
7241,Sold,10960605,12998952,"4.21Ξ ($5,421)","Jan 26, 2021",4.21,5421,2021-01-26
7241,Sold,8533182,10960605,0.12Ξ ($45),"Apr 04, 2018",0.12,45,2018-04-04
7243,Sold,0xf138eb,16745492,0.24Ξ ($63),"Jul 01, 2017",0.24,63,2017-07-01
7245,Sold,Deiv,avcdsld,0.58Ξ ($163),"Feb 19, 2020",0.58,163,2020-02-19
7245,Sold,Pixls,Deiv,0.49Ξ ($61),"Dec 27, 2019",0.49,61,2019-12-27
7245,Sold,0x8234be,Pixls,0.35Ξ ($50),"Apr 01, 2019",0.35,50,2019-04-01
7249,Sold,0x304288,0x3185fa,"11.77Ξ ($19,786)","Feb 06, 2021",11.77,19786,2021-02-06
7249,Sold,Carlini8,PM_disco…,2.20Ξ ($489),"Jun 29, 2020",2.2,489,2020-06-29
7249,Sold,0xbfa319,Carlini8,1.27Ξ ($162),"Jan 03, 2020",1.27,162,2020-01-03
7249,Sold,0x00d7c9,0xbfa319,0.10Ξ ($38),"Nov 22, 2017",0.1,38,2017-11-22
7250,Sold,Pranksy,0x23b50b,"26.99Ξ ($48,779)","Mar 12, 2021",26.99,48779,2021-03-12
7250,Sold,0x6f4a2d,Pranksy,"9.05Ξ ($15,461)","Feb 08, 2021",9.05,15461,2021-02-08
7251,Sold,13275108,13643953,"6.50Ξ ($11,397)","Feb 09, 2021",6.5,11397,2021-02-09
7254,Sold,ChrisR,psylo.et…,0.89Ξ ($207),"Jul 17, 2020",0.89,207,2020-07-17
7254,Sold,0xb6be4d,Pranksy,0.90Ξ ($182),"May 22, 2020",0.9,182,2020-05-22
7255,Sold,0x64d862,0xc829ba,"18Ξ ($32,434)","Mar 10, 2021",18,32434,2021-03-10
7255,Sold,shilpixe…,0x64d862,"15Ξ ($29,863)","Feb 20, 2021",15,29863,2021-02-20
7256,Sold,3581372,4620970,"25Ξ ($46,379)","Feb 22, 2021",25,46379,2021-02-22
7257,Sold,PM_disco…,zonted,"9Ξ ($3,405)","Sep 15, 2020",9,3405,2020-09-15
7257,Sold,sudheer,PM_disco…,3Ξ ($816),"Jul 23, 2020",3,816,2020-07-23
7257,Sold,0x61e7e7,sudheer,2.75Ξ ($653),"Jun 13, 2020",2.75,653,2020-06-13
7257,Sold,ark1,0x581b59,0.45Ξ ($55),"Dec 17, 2019",0.45,55,2019-12-17
7257,Sold,0x00d7c9,ark1,0.25Ξ ($47),"Sep 15, 2019",0.25,47,2019-09-15
7258,Sold,0x8ac65f,Deeze,"21Ξ ($37,992)","Feb 14, 2021",21,37992,2021-02-14
7261,Sold,0x54d7f9,0xc05488,"145Ξ ($220,085)","Mar 03, 2021",145,220085,2021-03-03
7261,Sold,0x167e00,0x54d7f9,"95Ξ ($182,260)","Feb 22, 2021",95,182260,2021-02-22
7261,Sold,EliteCat…,0x167e00,"30Ξ ($39,296)","Jan 10, 2021",30,39296,2021-01-10
7261,Sold,jmg,GoWest23,2.50Ξ ($312),"Dec 28, 2019",2.5,312,2019-12-28
7261,Sold,Slacktid…,jmg,1Ξ ($183),"Nov 01, 2019",1,183,2019-11-01
7261,Sold,shilpixe…,0x976b59,1Ξ ($229),"Sep 27, 2018",1,229,2018-09-27
7263,Sold,0x13816f,0x6f4a2d,"7.50Ξ ($13,515)","Feb 13, 2021",7.5,13515,2021-02-13
7263,Sold,0x7c18fd,0x13816f,"5.99Ξ ($2,131)","Sep 30, 2020",5.99,2131,2020-09-30
7263,Sold,redlione…,0x7c18fd,"5.99Ξ ($2,143)","Sep 29, 2020",5.99,2143,2020-09-29
7263,Sold,Pranksy,redlione…,"4.80Ξ ($1,741)","Sep 28, 2020",4.8,1741,2020-09-28
7263,Sold,zonted,Pranksy,"3.95Ξ ($1,413)","Sep 28, 2020",3.95,1413,2020-09-28
7263,Sold,Carlini8,zonted,"3Ξ ($1,036)","Sep 25, 2020",3,1036,2020-09-25
7263,Sold,Pranksy,Carlini8,1.99Ξ ($748),"Sep 14, 2020",1.99,748,2020-09-14
7263,Sold,juggerna…,alxo,0.25Ξ ($38),"Nov 23, 2019",0.25,38,2019-11-23
7264,Sold,0x51357b,gaus,"3.75Ξ ($1,342)","Sep 28, 2020",3.75,1342,2020-09-28
7264,Sold,Hemba,0x51357b,1.50Ξ ($551),"Sep 11, 2020",1.5,551,2020-09-11
7265,Sold,0x9c6b51,0xb33f6f,"22.69Ξ ($41,353)","Mar 18, 2021",22.69,41353,2021-03-18
7265,Sold,wookie.e…,0x9c6b51,"21.99Ξ ($38,569)","Mar 15, 2021",21.99,38569,2021-03-15
7265,Sold,0xb40dac,gaus,"3.50Ξ ($1,252)","Sep 28, 2020",3.5,1252,2020-09-28
7265,Sold,0x5e7ee9,0xb40dac,"3.25Ξ ($1,160)","Sep 27, 2020",3.25,1160,2020-09-27
7265,Sold,0xf4239e,0x5e7ee9,"3Ξ ($1,032)","Sep 25, 2020",3,1032,2020-09-25
7265,Sold,Hemba,0xf4239e,2.30Ξ ($796),"Sep 24, 2020",2.3,796,2020-09-24
7266,Sold,0x58164b,Kenney,0.06Ξ ($45),"May 07, 2018",0.06,45,2018-05-07
7268,Sold,0xbf6ccf,0x19bafb,"4.21Ξ ($5,425)","Jan 26, 2021",4.21,5425,2021-01-26
7268,Sold,0x48db19,pet3rpan,"3.20Ξ ($1,977)","Dec 22, 2020",3.2,1977,2020-12-22
7270,Sold,337252,10823523,"27Ξ ($48,434)","Mar 21, 2021",27,48434,2021-03-21
7270,Sold,12322844,14215174,0.30Ξ ($68),"Jul 20, 2017",0.3,68,2017-07-20
7271,Sold,0x33b17a,0x5e1b38,"25.80Ξ ($46,628)","Mar 12, 2021",25.8,46628,2021-03-12
7271,Sold,gaus,0x33b17a,"22Ξ ($33,735)","Mar 05, 2021",22,33735,2021-03-05
7271,Sold,Slider92,RayoVac,"4.75Ξ ($4,915)","Jan 11, 2021",4.75,4915,2021-01-11
7271,Sold,0x631b40,Slider92,"4.55Ξ ($5,428)","Jan 07, 2021",4.55,5428,2021-01-07
7272,Sold,0x33b17a,0x3624df,"74Ξ ($131,781)","Mar 17, 2021",74,131781,2021-03-17
7272,Sold,beautifu…,0x33b17a,"61.03Ξ ($107,065)","Mar 16, 2021",61.03,107065,2021-03-16
7272,Sold,0x3b7f24,beautifu…,"76Ξ ($116,538)","Mar 05, 2021",76,116538,2021-03-05
7272,Sold,Pranksy,0x3b7f24,"38Ξ ($56,286)","Feb 27, 2021",38,56286,2021-02-27
7272,Sold,0x577ebc,Pranksy,"18Ξ ($28,949)","Feb 04, 2021",18,28949,2021-02-04
7273,Sold,0x0b88fd,16037029,"169Ξ ($299,926)","Mar 21, 2021",169,299926,2021-03-21
7274,Sold,12322844,5772875,0.30Ξ ($58),"Jul 19, 2017",0.3,58,2017-07-19
7275,Sold,5966219,7823584,0.29Ξ ($78),"Jul 04, 2017",0.29,78,2017-07-04
7276,Sold,5966219,8008732,0.18Ξ ($49),"Jun 30, 2017",0.18,49,2017-06-30
7278,Sold,EliteCat…,0x0a8836,"15.45Ξ ($29,226)","Feb 18, 2021",15.45,29226,2021-02-18
7278,Sold,ross_VRO…,GoWest23,0.99Ξ ($200),"May 14, 2020",0.99,200,2020-05-14
7278,Sold,shilpixe…,ross_VRO…,0.60Ξ ($84),"Jan 07, 2020",0.6,84,2020-01-07
7279,Sold,MrNFT,0x2c123f,2.15Ξ ($794),"Sep 21, 2020",2.15,794,2020-09-21
7279,Sold,Pranksy,MrNFT,1.88Ξ ($716),"Sep 20, 2020",1.88,716,2020-09-20
7279,Sold,0x052564,evkort,1.75Ξ ($628),"Sep 13, 2020",1.75,628,2020-09-13
7279,Sold,0x5b098b,0xd8e806,0.39Ξ ($87),"Jul 12, 2017",0.39,87,2017-07-12
7281,Sold,0x033ee7,0xb9afc8,"4.93Ξ ($6,769)","Jan 29, 2021",4.93,6769,2021-01-29
7281,Sold,kingskin…,0x033ee7,"3.30Ξ ($1,141)","Sep 24, 2020",3.3,1141,2020-09-24
7281,Sold,Goop,kingskin…,0.68Ξ ($119),"Jan 30, 2020",0.68,119,2020-01-30
7281,Sold,0x7d705d,Goop,0.65Ξ ($114),"Jan 19, 2020",0.65,114,2020-01-19
7281,Sold,Goop,0x7d705d,0.46Ξ ($62),"Jan 04, 2020",0.46,62,2020-01-04
7281,Sold,0x87e225,Goop,0.42Ξ ($57),"Dec 30, 2019",0.42,57,2019-12-30
7281,Sold,0x00d7c9,0x87e225,0.30Ξ ($66),"Jul 19, 2019",0.3,66,2019-07-19
7284,Sold,Hemba,0x33f848,0.21Ξ ($43),"Oct 23, 2018",0.21,43,2018-10-23
7286,Sold,55241,9876623,0.05Ξ ($28),"May 29, 2018",0.05,28,2018-05-29
7289,Sold,410358,337252,"15.50Ξ ($29,803)","Apr 01, 2021",15.5,29803,2021-04-01
7290,Sold,0x161dba,0xa5d0d5,"27Ξ ($48,364)","Mar 16, 2021",27,48364,2021-03-16
7290,Sold,0x84c920,0x161dba,"24Ξ ($38,335)","Mar 03, 2021",24,38335,2021-03-03
7290,Sold,whiterab…,0x84c920,"20Ξ ($32,379)","Mar 03, 2021",20,32379,2021-03-03
7290,Sold,0x6611fe,whiterab…,2.10Ξ ($791),"Sep 15, 2020",2.1,791,2020-09-15
7292,Sold,Hemba,Pixls,0.30Ξ ($27),"Dec 08, 2018",0.3,27,2018-12-08
7293,Sold,6179280,15615250,"9Ξ ($16,367)","Feb 14, 2021",9,16367,2021-02-14
7293,Sold,7293485,6179280,"10Ξ ($18,186)","Feb 14, 2021",10,18186,2021-02-14
7295,Sold,0x00d7c9,Misha,0.08Ξ ($46),"May 31, 2018",0.08,46,2018-05-31
7298,Sold,natealex,0xe5e771,"6.20Ξ ($2,218)","Sep 28, 2020",6.2,2218,2020-09-28
7298,Sold,Hemba,natealex,1.50Ξ ($315),"May 20, 2020",1.5,315,2020-05-20
7299,Sold,Michel_M…,snax,"3.05Ξ ($1,174)","Sep 18, 2020",3.05,1174,2020-09-18
7299,Sold,Hemba,Michel_M…,1.45Ξ ($344),"Jun 13, 2020",1.45,344,2020-06-13
7300,Sold,0x58164b,Kenney,0.08Ξ ($60),"May 07, 2018",0.08,60,2018-05-07
7304,Sold,0x953750,0x000e8c,"26.40Ξ ($38,119)","Mar 01, 2021",26.4,38119,2021-03-01
7304,Sold,0x3e17fa,0x953750,"10Ξ ($17,464)","Feb 17, 2021",10,17464,2021-02-17
7304,Sold,0xe4c479,0x3e17fa,"3.50Ξ ($1,206)","Sep 25, 2020",3.5,1206,2020-09-25
7304,Sold,Hemba,0xe4c479,"3Ξ ($1,038)","Sep 24, 2020",3,1038,2020-09-24
7305,Sold,natealex,0x4869a7,2.45Ξ ($944),"Sep 18, 2020",2.45,944,2020-09-18
7305,Sold,Pranksy,natealex,1.25Ξ ($458),"Sep 11, 2020",1.25,458,2020-09-11
7305,Sold,0xe45df5,Pranksy,0.70Ξ ($94),"Jan 04, 2020",0.7,94,2020-01-04
7306,Sold,0xf1b658,pleyuh.e…,"10.25Ξ ($18,627)","Feb 13, 2021",10.25,18627,2021-02-13
7306,Sold,thi,0xf1b658,"8Ξ ($13,003)","Feb 04, 2021",8,13003,2021-02-04
7306,Sold,cloudwhi…,thi,"7.50Ξ ($2,721)","Sep 28, 2020",7.5,2721,2020-09-28
7306,Sold,TweetyPi…,DANNY,1.95Ξ ($394),"May 27, 2020",1.95,394,2020-05-27
7306,Sold,Hemba,TweetyPi…,1.50Ξ ($301),"May 26, 2020",1.5,301,2020-05-26
7307,Sold,chifoomi,0x336caf,"24Ξ ($38,517)","Feb 23, 2021",24,38517,2021-02-23
7307,Sold,j1mmy,chifoomi,"4.95Ξ ($1,731)","Oct 06, 2020",4.95,1731,2020-10-06
7307,Sold,0x11c9a7,j1mmy,2.02Ξ ($768),"Sep 18, 2020",2.02,768,2020-09-18
7307,Sold,0x1a96af,0x11c9a7,1.99Ξ ($750),"Sep 14, 2020",1.99,750,2020-09-14
7309,Sold,Pixls,0x32b1dc…,1.20Ξ ($240),"May 26, 2020",1.2,240,2020-05-26
7309,Sold,0x1a96af,Pixls,1.13Ξ ($224),"May 26, 2020",1.13,224,2020-05-26
7312,Sold,ark1,Kataster…,0.40Ξ ($49),"Dec 17, 2019",0.4,49,2019-12-17
7312,Sold,0x00d7c9,ark1,0.25Ξ ($47),"Sep 15, 2019",0.25,47,2019-09-15
7313,Sold,ChrisR,0xfb60bb,0.89Ξ ($287),"Jul 29, 2020",0.89,287,2020-07-29
7313,Sold,0xb6be4d,Pranksy,0.90Ξ ($182),"May 22, 2020",0.9,182,2020-05-22
7314,Sold,13275108,8461891,"29.50Ξ ($44,217)","Mar 03, 2021",29.5,44217,2021-03-03
7315,Sold,Cyborg,0x717403,0.15Ξ ($43),"Jul 02, 2017",0.15,43,2017-07-02
7316,Sold,53919,1710116,"30Ξ ($53,155)","Mar 17, 2021",30,53155,2021-03-17
7316,Sold,1471195,53919,"27.50Ξ ($47,807)","Mar 12, 2021",27.5,47807,2021-03-12
7317,Sold,8844177,grunar.e…,"22.40Ξ ($34,937)","Mar 04, 2021",22.4,34937,2021-03-04
7317,Sold,553331,0x86f391,"21.40Ξ ($32,316)","Feb 26, 2021",21.4,32316,2021-02-26
7317,Sold,13246077,0x087173,"3.98Ξ ($1,493)","Oct 18, 2020",3.98,1493,2020-10-18
7317,Sold,1742511,0xca1e7d,0.56Ξ ($119),"May 02, 2020",0.56,119,2020-05-02
7319,Sold,Cyborg,0x7a341c,0.20Ξ ($57),"Jul 02, 2017",0.2,57,2017-07-02
7320,Sold,12743405,8604628,"25Ξ ($37,952)","Mar 01, 2021",25,37952,2021-03-01
7321,Sold,Cyborg,0xc352b5,0.55Ξ ($48),"Dec 13, 2018",0.55,48,2018-12-13
7322,Sold,0x58164b,Kenney,0.06Ξ ($45),"May 07, 2018",0.06,45,2018-05-07
7323,Sold,Theodora,0x0e6167,"16.80Ξ ($33,145)","Feb 21, 2021",16.8,33145,2021-02-21
7323,Sold,Pranksy,Theodora,0.90Ξ ($329),"Sep 10, 2020",0.9,329,2020-09-10
7323,Sold,0xb6be4d,Pranksy,0.90Ξ ($182),"May 22, 2020",0.9,182,2020-05-22
7325,Sold,0x9e2b8a,Novo311,"22.99Ξ ($47,715)","Apr 09, 2021",22.99,47715,2021-04-09
7325,Sold,0xfc2a61,0x9e2b8a,"22.50Ξ ($40,863)","Mar 12, 2021",22.5,40863,2021-03-12
7325,Sold,0xf1b658,0x979a0c,"8.25Ξ ($14,992)","Feb 13, 2021",8.25,14992,2021-02-13
7325,Sold,0xca8fe4,0xf1b658,"8.25Ξ ($12,649)","Feb 03, 2021",8.25,12649,2021-02-03
7326,Sold,0x491be7,0xee433c,"38.88Ξ ($71,112)","Mar 18, 2021",38.88,71112,2021-03-18
7326,Sold,NeonNFT,0x491be7,"4.40Ξ ($1,639)","Oct 11, 2020",4.4,1639,2020-10-11
7326,Sold,0x9ce03d,NeonNFT,"4.40Ξ ($1,601)","Oct 09, 2020",4.4,1601,2020-10-09
7326,Sold,Party,0x9ce03d,"4.20Ξ ($1,531)","Oct 09, 2020",4.2,1531,2020-10-09
7326,Sold,parttty6,Party,"4Ξ ($1,404)","Oct 08, 2020",4,1404,2020-10-08
7326,Sold,Korniej,parttty6,"5.25Ξ ($1,791)","Oct 07, 2020",5.25,1791,2020-10-07
7326,Sold,0x988860,Korniej,1.99Ξ ($681),"Sep 22, 2020",1.99,681,2020-09-22
7326,Sold,TweetyPi…,0x988860,1.95Ξ ($726),"Sep 20, 2020",1.95,726,2020-09-20
7326,Sold,Dude_Nak…,Sylveste…,1.49Ξ ($532),"Sep 13, 2020",1.49,532,2020-09-13
7326,Sold,Pranksy,Dude_Nak…,1.25Ξ ($458),"Sep 11, 2020",1.25,458,2020-09-11
7326,Sold,0xb6be4d,Pranksy,0.90Ξ ($126),"Jan 07, 2020",0.9,126,2020-01-07
7327,Sold,0xe1ef5d,0xc65928,"5.32Ξ ($6,976)","Jan 27, 2021",5.32,6976,2021-01-27
7327,Sold,Pranksy,JayDelay,1.50Ξ ($562),"Sep 12, 2020",1.5,562,2020-09-12
7327,Sold,Hemba,Pranksy,1.45Ξ ($537),"Sep 11, 2020",1.45,537,2020-09-11
7329,Sold,Cyborg,0x00b278,0.24Ξ ($63),"Jul 04, 2017",0.24,63,2017-07-04
7331,Sold,0x8234be,sov,0.05Ξ ($34),"Dec 15, 2017",0.05,34,2017-12-15
7335,Sold,0xb1a875,0x43c751,"11.90Ξ ($21,825)","Feb 17, 2021",11.9,21825,2021-02-17
7335,Sold,0xb941f9,0xb1a875,"10Ξ ($18,274)","Feb 17, 2021",10,18274,2021-02-17
7335,Sold,0x1f5a39,0xb941f9,"8.10Ξ ($14,573)","Feb 16, 2021",8.1,14573,2021-02-16
7335,Sold,0x09d57f,0x1f5a39,"4.56Ξ ($3,344)","Dec 30, 2020",4.56,3344,2020-12-30
7338,Sold,MrTpunks,0xf4b4a5,"125Ξ ($238,036)","Mar 14, 2021",125,238036,2021-03-14
7338,Sold,Pranksy,MrTpunks…,4.99Ξ ($713),"Jan 13, 2020",4.99,713,2020-01-13
7338,Sold,0x470e9b,0x58164b,2.40Ξ ($523),"Aug 02, 2017",2.4,523,2017-08-02
7339,Sold,Cyborg,7478,0.35Ξ ($39),"Jan 27, 2019",0.35,39,2019-01-27
7341,Sold,55241,9876623,0.05Ξ ($28),"May 29, 2018",0.05,28,2018-05-29
7342,Sold,0xabf107,11026345,"47.50Ξ ($84,629)","Mar 11, 2021",47.5,84629,2021-03-11
7342,Sold,0x84c920,5976862,"40Ξ ($63,891)","Mar 03, 2021",40,63891,2021-03-03
7342,Sold,0xfba169,8702240,"45Ξ ($60,722)","Feb 28, 2021",45,60722,2021-02-28
7343,Sold,55241,Kenney,0.10Ξ ($58),"May 25, 2018",0.1,58,2018-05-25
7343,Sold,48442,0x00d7c9,0.39Ξ ($96),"Jul 08, 2017",0.39,96,2017-07-08
7343,Sold,48543,0x00bd3a,0.33Ξ ($94),"Jul 02, 2017",0.33,94,2017-07-02
7344,Sold,0x7bb62d,0xaa4672,"22.48Ξ ($35,421)","Mar 04, 2021",22.48,35421,2021-03-04
7344,Sold,0xca8fe4,0xf1ce58,"5.10Ξ ($6,118)","Jan 08, 2021",5.1,6118,2021-01-08
7345,Sold,Deeze,0xe703f2,"14.99Ξ ($31,055)","Apr 08, 2021",14.99,31055,2021-04-08
7345,Sold,0xf4239e,gaus,"3.50Ξ ($1,252)","Sep 28, 2020",3.5,1252,2020-09-28
7345,Sold,Hemba,0xf4239e,2.30Ξ ($795),"Sep 24, 2020",2.3,795,2020-09-24
7347,Sold,0x35789d,0x068315,"22.99Ξ ($40,976)","Mar 12, 2021",22.99,40976,2021-03-12
7347,Sold,0xbe1ec9,0x35789d,"15Ξ ($29,343)","Feb 19, 2021",15,29343,2021-02-19
7347,Sold,therealB…,0xbe1ec9,2.25Ξ ($821),"Sep 16, 2020",2.25,821,2020-09-16
7347,Sold,Michel_M…,therealB…,0.85Ξ ($326),"Aug 25, 2020",0.85,326,2020-08-25
7347,Sold,Pranksy,Michel_M…,0.85Ξ ($195),"Jul 02, 2020",0.85,195,2020-07-02
7347,Sold,0xb6be4d,Pranksy,0.90Ξ ($182),"May 22, 2020",0.9,182,2020-05-22
7349,Sold,5734076,3617189,"8.10Ξ ($14,569)","Feb 16, 2021",8.1,14569,2021-02-16
7353,Sold,0x13816f,0xff2245,"6.80Ξ ($12,054)","Feb 10, 2021",6.8,12054,2021-02-10
7353,Sold,Hex,0x13816f,"4.75Ξ ($1,630)","Oct 02, 2020",4.75,1630,2020-10-02
7353,Sold,Hemba,Hex,2.50Ξ ($865),"Sep 24, 2020",2.5,865,2020-09-24
7355,Sold,8533182,Kenney,0.09Ξ ($80),"Feb 28, 2018",0.09,80,2018-02-28
7356,Sold,shilpixe…,0x546149,"50Ξ ($105,018)","Apr 05, 2021",50,105018,2021-04-05
7359,Sold,5734076,4769884,"25Ξ ($48,124)","Feb 21, 2021",25,48124,2021-02-21
7360,Sold,Punkofth…,moonphas…,"7.00Ξ ($2,523)","Sep 27, 2020",7,2523,2020-09-27
7363,Sold,0xbc081c,0xf4a775,0.15Ξ ($70),"Dec 04, 2017",0.15,70,2017-12-04
7366,Sold,Hemba,0xf4a775,0.13Ξ ($61),"Dec 04, 2017",0.13,61,2017-12-04
7368,Sold,Fearless…,Dude_Nak…,0.50Ξ ($59),"Mar 13, 2020",0.5,59,2020-03-13
7368,Sold,0xc2ac3c,Fearless…,0.40Ξ ($47),"Jan 24, 2019",0.4,47,2019-01-24
7368,Sold,0x470e9b,0xb11d6a,0.25Ξ ($83),"Aug 25, 2017",0.25,83,2017-08-25
7369,Sold,16490857,7435267,0.15Ξ ($44),"Jun 29, 2017",0.15,44,2017-06-29
7371,Sold,Hemba,0x374bd1,0.55Ξ ($135),"May 23, 2019",0.55,135,2019-05-23
7374,Sold,5966219,Korniej,"10.90Ξ ($17,272)","Feb 07, 2021",10.9,17272,2021-02-07
7375,Sold,0xbfa319,0xf40b3d,2.58Ξ ($843),"Sep 24, 2020",2.58,843,2020-09-24
7375,Sold,juggerna…,0xbfa319,0.25Ξ ($46),"Nov 02, 2019",0.25,46,2019-11-02
7377,Sold,redlione…,0xf40b3d,2.75Ξ ($949),"Sep 25, 2020",2.75,949,2020-09-25
7377,Sold,Pranksy,redlione…,2.19Ξ ($757),"Sep 24, 2020",2.19,757,2020-09-24
7377,Sold,Hemba,Pranksy,1.80Ξ ($613),"Sep 22, 2020",1.8,613,2020-09-22
7378,Sold,6471110,15162117,"29.99Ξ ($51,626)","Mar 27, 2021",29.99,51626,2021-03-27
7378,Sold,13275108,6471110,"26Ξ ($44,262)","Mar 27, 2021",26,44262,2021-03-27
7383,Sold,MBK,tonyherr…,"7.25Ξ ($11,314)","Feb 03, 2021",7.25,11314,2021-02-03
7383,Sold,Hemba,MBK,1.50Ξ ($330),"May 29, 2020",1.5,330,2020-05-29
7384,Sold,Hemba,0x5071f6,1.22Ξ ($252),"May 17, 2020",1.22,252,2020-05-17
7385,Sold,55241,11124895,0.25Ξ ($45),"Sep 02, 2019",0.25,45,2019-09-02
7386,Sold,0xdae48d,6664633,"32Ξ ($57,543)","Mar 12, 2021",32,57543,2021-03-12
7387,Sold,j1mmy,friskynf…,1.90Ξ ($730),"Sep 20, 2020",1.9,730,2020-09-20
7387,Sold,0x48db19,Sylveste…,1.45Ξ ($534),"Sep 11, 2020",1.45,534,2020-09-11
7388,Sold,0xbff231,12502685,"15.99Ξ ($33,163)","Apr 06, 2021",15.99,33163,2021-04-06
7388,Sold,0x0642f6,12579377,"15.50Ξ ($28,603)","Mar 30, 2021",15.5,28603,2021-03-30
7390,Sold,0x052564,0x_NFT,"6Ξ ($2,176)","Sep 28, 2020",6,2176,2020-09-28
7390,Sold,Hemba,0xd8e806,0.40Ξ ($82),"Jul 13, 2017",0.4,82,2017-07-13
7391,Sold,0x1da533,0x5ea968,"14Ξ ($24,862)","Feb 17, 2021",14,24862,2021-02-17
7391,Sold,Hemba,DANNY,1.35Ξ ($292),"May 18, 2020",1.35,292,2020-05-18
7392,Sold,crazyrab…,charley,"15Ξ ($29,039)","Feb 21, 2021",15,29039,2021-02-21
7392,Sold,itsfine,KittyGr_…,"4.95Ξ ($1,804)","Oct 09, 2020",4.95,1804,2020-10-09
7392,Sold,Korniej,itsfine,"3.50Ξ ($1,237)","Sep 26, 2020",3.5,1237,2020-09-26
7392,Sold,0x374bd1,Korniej,"3Ξ ($1,037)","Sep 21, 2020",3,1037,2020-09-21
7392,Sold,0xe45df5,0x374bd1,1.23Ξ ($299),"May 22, 2019",1.23,299,2019-05-22
7392,Sold,0x677b43,0xe45df5,1.11Ξ ($228),"Jul 13, 2017",1.11,228,2017-07-13
7392,Sold,Hemba,0x677b43,0.40Ξ ($82),"Jul 13, 2017",0.4,82,2017-07-13
7395,Sold,0xbc081c,sov,0.15Ξ ($44),"Sep 29, 2017",0.15,44,2017-09-29
7396,Sold,0x00d7c9,sov,0.23Ξ ($47),"Jul 10, 2017",0.23,47,2017-07-10
7398,Sold,0x00d7c9,sov,0.10Ξ ($30),"Oct 27, 2017",0.1,30,2017-10-27
7399,Sold,12743405,150475,"15Ξ ($30,086)","Feb 20, 2021",15,30086,2021-02-20
7401,Sold,ross_VRO…,0xd1e8b7,"23Ξ ($34,828)","Feb 27, 2021",23,34828,2021-02-27
7401,Sold,Deeze,ross_VRO…,"4.99Ξ ($6,242)","Jan 23, 2021",4.99,6242,2021-01-23
7401,Sold,0x2fdacd,Deeze,"4.75Ξ ($5,252)","Jan 13, 2021",4.75,5252,2021-01-13
7402,Sold,6249972,14305628,"20.50Ξ ($37,920)","Mar 10, 2021",20.5,37920,2021-03-10
7403,Sold,0x585f98,7823584,0.05Ξ ($65),"Jan 15, 2018",0.05,65,2018-01-15
7405,Sold,alphab.e…,0x535278,"30Ξ ($53,547)","Mar 12, 2021",30,53547,2021-03-12
7405,Sold,0x22ff03,alphab.e…,"21.98Ξ ($29,632)","Feb 28, 2021",21.98,29632,2021-02-28
7406,Sold,wookie.e…,0xa7bd74,"19.50Ξ ($41,660)","Apr 10, 2021",19.5,41660,2021-04-10
7406,Sold,0xca8fe4,wookie.e…,"19Ξ ($31,892)","Mar 27, 2021",19,31892,2021-03-27
7407,Sold,0xb44969,0x565496,"75Ξ ($136,657)","Feb 14, 2021",75,136657,2021-02-14
7407,Sold,0xcbdde8,0xbf6ccf,"49Ξ ($28,116)","Dec 24, 2020",49,28116,2020-12-24
7407,Sold,jmg,KittyGr_…,0.69Ξ ($414),"Jun 08, 2018",0.69,414,2018-06-08
7407,Sold,0x8ba3e2,jmg,0.32Ξ ($97),"Oct 20, 2017",0.32,97,2017-10-20
7409,Sold,ross_VRO…,0x0ebd1a,"15.99Ξ ($28,262)","Feb 17, 2021",15.99,28262,2021-02-17
7409,Sold,0x99b884,ross_VRO…,"5.75Ξ ($9,381)","Feb 03, 2021",5.75,9381,2021-02-03
7412,Sold,0x8234be,Kenney,0.30Ξ ($134),"Mar 28, 2018",0.3,134,2018-03-28
7415,Sold,zaphod,0xf40b3d,"33Ξ ($58,670)","Mar 21, 2021",33,58670,2021-03-21
7416,Sold,Pranksy,snax,0.91Ξ ($372),"Aug 20, 2020",0.91,372,2020-08-20
7416,Sold,0xb6be4d,Pranksy,0.90Ξ ($182),"May 22, 2020",0.9,182,2020-05-22
7419,Sold,0x00d7c9,GtC,0.25Ξ ($45),"Sep 08, 2019",0.25,45,2019-09-08
7419,Sold,0x682c30,0x00d7c9,0.39Ξ ($96),"Jul 08, 2017",0.39,96,2017-07-08
7421,Sold,0x3e17fa,0x8bf6ef,"16Ξ ($32,116)","Feb 20, 2021",16,32116,2021-02-20
7421,Sold,0xc4ee33,0x3e17fa,"7Ξ ($2,463)","Sep 27, 2020",7,2463,2020-09-27
7421,Sold,0x519626,0xc4ee33,"3Ξ ($1,153)","Sep 20, 2020",3,1153,2020-09-20
7421,Sold,antunes_…,0x519626,1.10Ξ ($439),"Aug 05, 2020",1.1,439,2020-08-05
7421,Sold,Zieg,antunes_…,1.25Ξ ($336),"Jun 16, 2019",1.25,336,2019-06-16
7421,Sold,0xbc081c,Zieg,0.29Ξ ($65),"Aug 03, 2017",0.29,65,2017-08-03
7422,Sold,CPyrc,0xc72aed,"10Ξ ($13,054)","Jan 20, 2021",10,13054,2021-01-20
7422,Sold,KittyGr_…,CPyrc,"5Ξ ($1,707)","Oct 07, 2020",5,1707,2020-10-07
7422,Sold,jmg,KittyGr_…,0.18Ξ ($108),"Jun 08, 2018",0.18,108,2018-06-08
7422,Sold,0x58164b,jmg,0.06Ξ ($45),"May 07, 2018",0.06,45,2018-05-07
7423,Sold,jmg,0x4d92ad,0.79Ξ ($209),"May 16, 2019",0.79,209,2019-05-16
7423,Sold,0x00d7c9,jmg,0.30Ξ ($52),"May 06, 2019",0.3,52,2019-05-06
7425,Sold,0xdbc416,0x48c85c,"20.50Ξ ($40,788)","Feb 20, 2021",20.5,40788,2021-02-20
7425,Sold,0xc04f55,0xdbc416,"16.95Ξ ($33,197)","Feb 19, 2021",16.95,33197,2021-02-19
7425,Sold,0x8234be,Dude_Nak…,0.10Ξ ($39),"Mar 31, 2018",0.1,39,2018-03-31
7427,Sold,Hemba,gr8wxl,0.42Ξ ($94),"Aug 03, 2017",0.42,94,2017-08-03
7431,Sold,Korniej,0x68a7ac,"5.50Ξ ($3,543)","Dec 26, 2020",5.5,3543,2020-12-26
7431,Sold,Carlini8,Korniej,"5.10Ξ ($1,846)","Sep 28, 2020",5.1,1846,2020-09-28
7431,Sold,GoWest23,Carlini8,"4.95Ξ ($1,778)","Sep 28, 2020",4.95,1778,2020-09-28
7431,Sold,Hemba,GoWest23,0.43Ξ ($75),"May 06, 2019",0.43,75,2019-05-06
7435,Sold,0xeb725f,0xcdd84c,"14.49Ξ ($28,797)","Feb 20, 2021",14.49,28797,2021-02-20
7435,Sold,iPhone,0xeb725f,"10Ξ ($18,340)","Feb 17, 2021",10,18340,2021-02-17
7435,Sold,flipper_,iPhone,"5.99Ξ ($2,126)","Sep 30, 2020",5.99,2126,2020-09-30
7435,Sold,GoWest23,flipper_,"5.11Ξ ($1,856)","Sep 28, 2020",5.11,1856,2020-09-28
7435,Sold,Hemba,GoWest23,0.43Ξ ($75),"May 06, 2019",0.43,75,2019-05-06
7439,Sold,natealex,0xaf5e63,2Ξ ($425),"May 02, 2020",2,425,2020-05-02
7439,Sold,Dude_Nak…,natealex,1.10Ξ ($207),"Nov 13, 2019",1.1,207,2019-11-13
7439,Sold,0x58164b,Dude_Nak…,0.10Ξ ($38),"Apr 04, 2018",0.1,38,2018-04-04
7439,Sold,0xd8e806,0x58164b,0.80Ξ ($163),"Jul 25, 2017",0.8,163,2017-07-25
7440,Sold,0x2e519b,0xaf5e63,0.95Ξ ($379),"Aug 29, 2020",0.95,379,2020-08-29
7440,Sold,0x00d7c9,0x2e519b,0.23Ξ ($44),"Aug 22, 2019",0.23,44,2019-08-22
7441,Sold,0x010eae,0xc72f3a,0.49Ξ ($75),"Jan 07, 2019",0.49,75,2019-01-07
7441,Sold,0xd8e806,0x010eae,0.20Ξ ($66),"Aug 25, 2017",0.2,66,2017-08-25
7441,Sold,Hemba,0xd8e806,0.44Ξ ($90),"Jul 13, 2017",0.44,90,2017-07-13
7442,Sold,0x5b098b,0x9be1c7,0.22Ξ ($61),"Jul 03, 2017",0.22,61,2017-07-03
7443,Sold,0xe907c9,0xef784c,"27Ξ ($48,954)","Mar 12, 2021",27,48954,2021-03-12
7443,Sold,0xb9c71d,0xe907c9,"26Ξ ($41,627)","Mar 06, 2021",26,41627,2021-03-06
7443,Sold,0x65ba4f,0xb9c71d,"25.90Ξ ($36,234)","Feb 28, 2021",25.9,36234,2021-02-28
7443,Sold,0x13816f,0x65ba4f,"14.88Ξ ($28,148)","Feb 18, 2021",14.88,28148,2021-02-18
7443,Sold,CPyrc,0x13816f,"5.70Ξ ($2,215)","Oct 12, 2020",5.7,2215,2020-10-12
7443,Sold,cryptosa…,CPyrc,"4.68Ξ ($1,718)","Oct 12, 2020",4.68,1718,2020-10-12
7443,Sold,0xcb832d,cryptosa…,2.19Ξ ($831),"Sep 18, 2020",2.19,831,2020-09-18
7443,Sold,0x2a6227,0xfbdbcf,1.99Ξ ($756),"Sep 14, 2020",1.99,756,2020-09-14
7443,Sold,0x2bcbbd,0x2a6227,1.10Ξ ($222),"May 22, 2020",1.1,222,2020-05-22
7446,Sold,0x00d7c9,GtC,0.25Ξ ($45),"Sep 03, 2019",0.25,45,2019-09-03
7447,Sold,13957742,11446499,"22Ξ ($40,013)","Mar 19, 2021",22,40013,2021-03-19
7452,Sold,0x7c511d,CyrusOld,0.05Ξ ($26),"Jun 14, 2018",0.05,26,2018-06-14
7454,Sold,0xe4c479,0x0d5c8d,"3Ξ ($1,021)","Sep 25, 2020",3,1021,2020-09-25
7454,Sold,Hemba,0xe4c479,2.50Ξ ($951),"Sep 20, 2020",2.5,951,2020-09-20
7455,Sold,Hemba,0x0601d0,2.10Ξ ($419),"May 26, 2020",2.1,419,2020-05-26
7458,Sold,0x4960c4…,0xf9dde1,"56Ξ ($11,686)","May 28, 2020",56,11686,2020-05-28
7458,Sold,0xd8e806,0x4960c4…,0.97Ξ ($337),"Aug 28, 2017",0.97,337,2017-08-28
7458,Sold,0xa9bfa9,0xa0a59c,1.10Ξ ($247),"Aug 03, 2017",1.1,247,2017-08-03
7459,Sold,11200709,6203752,"21.49Ξ ($33,251)","Mar 06, 2021",21.49,33251,2021-03-06
7459,Sold,3699717,11200709,"18.50Ξ ($27,581)","Mar 05, 2021",18.5,27581,2021-03-05
7461,Sold,55241,0x00bd3a,0.35Ξ ($113),"Aug 21, 2017",0.35,113,2017-08-21
7464,Sold,0xbc081c,0x536fb9,0.10Ξ ($31),"Nov 13, 2017",0.1,31,2017-11-13
7465,Sold,Hemba,0x7c00c9…,0.77Ξ ($135),"Apr 07, 2019",0.77,135,2019-04-07
7467,Sold,8533182,8981948,0.10Ξ ($83),"Feb 24, 2018",0.1,83,2018-02-24
7468,Sold,0xf2052f,0x701f37,"8.88Ξ ($15,341)","Feb 06, 2021",8.88,15341,2021-02-06
7468,Sold,TweetyPi…,0xf2052f,"6.40Ξ ($9,931)","Feb 03, 2021",6.4,9931,2021-02-03
7468,Sold,0x4a9073,TweetyPi…,"4.25Ξ ($5,253)","Jan 07, 2021",4.25,5253,2021-01-07
7468,Sold,0x052564,0x4a9073,"12Ξ ($4,378)","Oct 16, 2020",12,4378,2020-10-16
7468,Sold,0xfb077c,0xd8e806,0.30Ξ ($65),"Jul 21, 2017",0.3,65,2017-07-21
7470,Sold,55241,9876623,0.05Ξ ($28),"May 29, 2018",0.05,28,2018-05-29
7471,Sold,55241,10130264,0.50Ξ ($113),"Jul 24, 2017",0.5,113,2017-07-24
7472,Sold,0x1f5a39,tonyherr…,"4.98Ξ ($6,236)","Jan 22, 2021",4.98,6236,2021-01-22
7472,Sold,satman,MrNFT,"3.50Ξ ($1,206)","Sep 25, 2020",3.5,1206,2020-09-25
7472,Sold,0xf0f068…,satman,0.75Ξ ($93),"Mar 15, 2020",0.75,93,2020-03-15
7472,Sold,0x7d705d,0xf0f068…,0.70Ξ ($115),"Jan 16, 2020",0.7,115,2020-01-16
7472,Sold,Cryptokk…,0x7d705d,0.48Ξ ($64),"Jan 04, 2020",0.48,64,2020-01-04
7472,Sold,0x00d7c9,Cryptokk…,0.30Ξ ($68),"Jul 18, 2019",0.3,68,2019-07-18
7473,Sold,DANNY,0x963eb0,"5Ξ ($1,193)","Jun 01, 2020",5,1193,2020-06-01
7473,Sold,Pranksy,DANNY,1.99Ξ ($380),"May 10, 2020",1.99,380,2020-05-10
7473,Sold,0x61e7e7,Pranksy,1Ξ ($143),"Jan 07, 2020",1,143,2020-01-07
7473,Sold,0xf5099e,0x581b59,1Ξ ($309),"Jun 22, 2019",1,309,2019-06-22
7473,Sold,Zieg,0xa0a59c,0.50Ξ ($155),"Aug 11, 2017",0.5,155,2017-08-11
7474,Sold,8533182,Kenney,0.11Ξ ($76),"May 02, 2018",0.11,76,2018-05-02
7475,Sold,15808747,sov,0.30Ξ ($85),"Jul 02, 2017",0.3,85,2017-07-02
7477,Sold,5734076,2664712,"10Ξ ($17,489)","Feb 16, 2021",10,17489,2021-02-16
7478,Sold,0x0af8cc,1750922,0.29Ξ ($41),"Jan 01, 2019",0.29,41,2019-01-01
7478,Sold,0x00d7c9,719052,0.05Ξ ($27),"Jun 11, 2018",0.05,27,2018-06-11
7481,Sold,5734076,3333383,"11Ξ ($20,174)","Feb 17, 2021",11,20174,2021-02-17
7483,Sold,0xca8fe4,14492587,"19.99Ξ ($36,594)","Mar 30, 2021",19.99,36594,2021-03-30
7484,Sold,0xbfa319,0xe5e771,"6.94Ξ ($2,484)","Sep 28, 2020",6.94,2484,2020-09-28
7484,Sold,TweetyPi…,0xbfa319,0.90Ξ ($244),"Feb 16, 2020",0.9,244,2020-02-16
7484,Sold,0x61e7e7,TweetyPi…,0.78Ξ ($107),"Jan 05, 2020",0.78,107,2020-01-05
7484,Sold,0x00d7c9,0x581b59,0.50Ξ ($134),"Jul 13, 2019",0.5,134,2019-07-13
7485,Sold,15808747,7823584,0.20Ξ ($56),"Jun 30, 2017",0.2,56,2017-06-30
7486,Sold,CryptoIn…,0xf40b3d,2.95Ξ ($969),"Sep 24, 2020",2.95,969,2020-09-24
7486,Sold,natealex,CryptoIn…,1.50Ξ ($545),"Sep 14, 2020",1.5,545,2020-09-14
7486,Sold,Pranksy,natealex,1.25Ξ ($458),"Sep 11, 2020",1.25,458,2020-09-11
7486,Sold,0xb6be4d,Pranksy,0.90Ξ ($159),"Jan 18, 2020",0.9,159,2020-01-18
7491,Sold,12586027,2390212,0.58Ξ ($125),"Jul 21, 2017",0.58,125,2017-07-21
7493,Sold,14215174,Kenney,0.15Ξ ($128),"Mar 03, 2018",0.15,128,2018-03-03
7493,Sold,2233870,0xd8e806,0.40Ξ ($82),"Jul 13, 2017",0.4,82,2017-07-13
7494,Sold,0x297009,13263821,"22.40Ξ ($39,754)","Mar 21, 2021",22.4,39754,2021-03-21
7494,Sold,0x97920e,2715657,"20.40Ξ ($36,289)","Mar 11, 2021",20.4,36289,2021-03-11
7494,Sold,0x11f058,9933326,"16Ξ ($29,172)","Mar 09, 2021",16,29172,2021-03-09
7494,Sold,0x167e00,1175640,"19Ξ ($37,181)","Feb 21, 2021",19,37181,2021-02-21
7494,Sold,0xca8fe4,1474048,"6.10Ξ ($7,791)","Jan 27, 2021",6.1,7791,2021-01-27
7495,Sold,0x5f5df4,9976526,"19.99Ξ ($42,425)","Apr 11, 2021",19.99,42425,2021-04-11
7501,Sold,0x565496,0xebf1db,"55Ξ ($100,286)","Mar 20, 2021",55,100286,2021-03-20
7501,Sold,natealex,0x565496,"9.20Ξ ($9,520)","Jan 11, 2021",9.2,9520,2021-01-11
7501,Sold,0xca8fe4,natealex,"7.89Ξ ($7,998)","Jan 04, 2021",7.89,7998,2021-01-04
7502,Sold,Michel_M…,j1mmy,2.10Ξ ($790),"Sep 14, 2020",2.1,790,2020-09-14
7502,Sold,Hemba,Michel_M…,1.60Ξ ($602),"Sep 14, 2020",1.6,602,2020-09-14
7503,Sold,TweetyPi…,MrTpunks…,1.25Ξ ($314),"Feb 16, 2020",1.25,314,2020-02-16
7503,Sold,Pranksy,TweetyPi…,0.65Ξ ($85),"Dec 31, 2019",0.65,85,2019-12-31
7503,Sold,0x00d7c9,Pranksy,0.25Ξ ($45),"Sep 02, 2019",0.25,45,2019-09-02
7504,Sold,0xdbc416,12611005,"11Ξ ($18,013)","Feb 05, 2021",11,18013,2021-02-05
7504,Sold,0x2fdacd,14402582,"5.50Ξ ($6,065)","Jan 13, 2021",5.5,6065,2021-01-13
7505,Sold,SenecaEt…,0x280bf6,"4.15Ξ ($1,896)","Nov 14, 2020",4.15,1896,2020-11-14
7505,Sold,0xe4c479,SenecaEt…,"3Ξ ($1,054)","Sep 24, 2020",3,1054,2020-09-24
7505,Sold,Hemba,0xe4c479,"3Ξ ($1,141)","Sep 20, 2020",3,1141,2020-09-20
7506,Sold,11425402,6115289,"19.75Ξ ($33,334)","Mar 27, 2021",19.75,33334,2021-03-27
7506,Sold,13275108,11425402,"22.50Ξ ($34,225)","Mar 01, 2021",22.5,34225,2021-03-01
7507,Sold,16105941,12756150,"28.49Ξ ($58,800)","Apr 08, 2021",28.49,58800,2021-04-08
7507,Sold,5734076,16105941,"27Ξ ($49,225)","Mar 20, 2021",27,49225,2021-03-20
7508,Sold,0x565496,0xc20c55,"34Ξ ($62,090)","Mar 11, 2021",34,62090,2021-03-11
7508,Sold,0xb44969,0x565496,"10.90Ξ ($19,897)","Feb 13, 2021",10.9,19897,2021-02-13
7508,Sold,0x1d45f1,0xbf6ccf,"3.95Ξ ($2,473)","Dec 22, 2020",3.95,2473,2020-12-22
7508,Sold,17MILE,0x1d45f1,"3.90Ξ ($1,449)","Sep 15, 2020",3.9,1449,2020-09-15
7508,Sold,0x1a96af,17MILE,1.43Ξ ($291),"May 22, 2020",1.43,291,2020-05-22
7509,Sold,0x023ef7,0xc7acc9,"27.25Ξ ($47,265)","Feb 22, 2021",27.25,47265,2021-02-22
7509,Sold,0xb1a875,0x023ef7,"21.50Ξ ($40,990)","Feb 21, 2021",21.5,40990,2021-02-21
7509,Sold,dereklau…,0xb1a875,"18.90Ξ ($37,288)","Feb 21, 2021",18.9,37288,2021-02-21
7509,Sold,0x304288,dereklau…,"17Ξ ($33,319)","Feb 21, 2021",17,33319,2021-02-21
7509,Sold,Michel_M…,PM_disco…,1.10Ξ ($373),"Sep 08, 2020",1.1,373,2020-09-08
7509,Sold,Pranksy,Michel_M…,1.09Ξ ($251),"Jul 02, 2020",1.09,251,2020-07-02
7509,Sold,0xe45df5,Pranksy,0.60Ξ ($81),"Jan 04, 2020",0.6,81,2020-01-04
7513,Sold,Cyborg,0x7a341c,0.20Ξ ($57),"Jul 02, 2017",0.2,57,2017-07-02
7514,Sold,11551919,13252568,"15Ξ ($26,740)","Feb 15, 2021",15,26740,2021-02-15
7515,Sold,0x257e2b,WuTangCl…,"13.99Ξ ($4,909)","Oct 08, 2020",13.99,4909,2020-10-08
7515,Sold,sov,0x257e2b,"11Ξ ($3,750)","Oct 07, 2020",11,3750,2020-10-07
7516,Sold,0x4c1bd9…,VonMises,2Ξ ($466),"Jul 16, 2020",2,466,2020-07-16
7516,Sold,0x00d7c9,0x4c1bd9…,0.75Ξ ($175),"May 18, 2019",0.75,175,2019-05-18
7519,Sold,8020267,934967,"69Ξ ($124,942)","Mar 19, 2021",69,124942,2021-03-19
7519,Sold,5734076,8020267,"61Ξ ($90,056)","Mar 05, 2021",61,90056,2021-03-05
7520,Sold,970122,5333869,"80Ξ ($145,435)","Mar 19, 2021",80,145435,2021-03-19
7520,Sold,5734076,970122,"44.99Ξ ($82,184)","Mar 17, 2021",44.99,82184,2021-03-17
7521,Sold,0x398646,0x46524c,"25.99Ξ ($46,981)","Mar 15, 2021",25.99,46981,2021-03-15
7521,Sold,0x11f058,0x398646,"20Ξ ($35,361)","Mar 08, 2021",20,35361,2021-03-08
7521,Sold,VonMises,0x11f058,"15Ξ ($26,438)","Feb 15, 2021",15,26438,2021-02-15
7521,Sold,0x470e9b,VonMises,1.53Ξ ($313),"May 25, 2020",1.53,313,2020-05-25
7522,Sold,337252,942439,"19Ξ ($37,485)","Feb 21, 2021",19,37485,2021-02-21
7522,Sold,12322844,14215174,0.30Ξ ($68),"Jul 20, 2017",0.3,68,2017-07-20
7523,Sold,straybit…,0x00b278,"8Ξ ($1,646)","Jul 10, 2017",8,1646,2017-07-10
7524,Sold,0xa02d92,0xad4f67,"25Ξ ($41,223)","Feb 24, 2021",25,41223,2021-02-24
7524,Sold,Cyborg,0x459c13,0.25Ξ ($74),"Aug 08, 2017",0.25,74,2017-08-08
7525,Sold,pelvis.e…,0x9d1968,"31.99Ξ ($57,525)","Mar 12, 2021",31.99,57525,2021-03-12
7525,Sold,NFTinTin,pelvis.e…,"11Ξ ($19,822)","Feb 13, 2021",11,19822,2021-02-13
7525,Sold,CPyrc,NFTinTin,"5.75Ξ ($2,097)","Sep 28, 2020",5.75,2097,2020-09-28
7525,Sold,oref,CPyrc,"3.50Ξ ($1,227)","Sep 26, 2020",3.5,1227,2020-09-26
7525,Sold,Pranksy,oref,1.99Ξ ($745),"Sep 14, 2020",1.99,745,2020-09-14
7525,Sold,juggerna…,alxo,0.25Ξ ($38),"Nov 23, 2019",0.25,38,2019-11-23
7526,Sold,Pranksy,Dude_Nak…,0.60Ξ ($80),"Jan 04, 2020",0.6,80,2020-01-04
7526,Sold,0x00d7c9,Pranksy,0.25Ξ ($45),"Sep 02, 2019",0.25,45,2019-09-02
7527,Sold,0xbc081c,Ajiyl,0.15Ξ ($70),"Dec 04, 2017",0.15,70,2017-12-04
7528,Sold,0x13816f,0x0ebd1a,"19Ξ ($33,767)","Feb 17, 2021",19,33767,2021-02-17
7528,Sold,KittyGr_…,0x13816f,"5.20Ξ ($1,774)","Oct 06, 2020",5.2,1774,2020-10-06
7528,Sold,jmg,KittyGr_…,0.18Ξ ($108),"Jun 08, 2018",0.18,108,2018-06-08
7528,Sold,Hemba,jmg,0.06Ξ ($47),"May 06, 2018",0.06,47,2018-05-06
7530,Sold,16058782,4352938,0.48Ξ ($58),"Feb 14, 2019",0.48,58,2019-02-14
7530,Sold,8533182,10528156,0.25Ξ ($51),"Jul 27, 2017",0.25,51,2017-07-27
7532,Sold,0xde0193,Korniej,"4.50Ξ ($3,298)","Dec 31, 2020",4.5,3298,2020-12-31
7533,Sold,Pranksy,gaus,2.75Ξ ($949),"Sep 25, 2020",2.75,949,2020-09-25
7533,Sold,Hemba,Pranksy,2.30Ξ ($796),"Sep 24, 2020",2.3,796,2020-09-24
7534,Sold,0x61e7e7,Kataster…,0.89Ξ ($128),"Jan 10, 2020",0.89,128,2020-01-10
7534,Sold,jmg,0x61e7e7,0.75Ξ ($197),"Jun 12, 2019",0.75,197,2019-06-12
7534,Sold,0x00d7c9,jmg,0.35Ξ ($60),"Apr 21, 2019",0.35,60,2019-04-21
7540,Sold,0x29b1b2,16717009,"23Ξ ($35,513)","Mar 01, 2021",23,35513,2021-03-01
7540,Sold,0x5eb97f,2732466,"7.89Ξ ($9,628)","Jan 27, 2021",7.89,9628,2021-01-27
7540,Sold,0x0601d0,6207871,"4.50Ξ ($1,652)","Oct 17, 2020",4.5,1652,2020-10-17
7540,Sold,0x0b30fd,13794879,0.29Ξ ($67),"Jul 22, 2017",0.29,67,2017-07-22
7542,Sold,5966219,VonMises,"10.90Ξ ($4,103)","Sep 15, 2020",10.9,4103,2020-09-15
7543,Sold,0x4960c4…,0xa5c80b,"4.20Ξ ($5,586)","Jan 21, 2021",4.2,5586,2021-01-21
7543,Sold,Hemba,0x4960c4…,0.95Ξ ($370),"Aug 05, 2020",0.95,370,2020-08-05
7544,Sold,0x0735b3,0x4cf23b,"22.49Ξ ($39,980)","Mar 15, 2021",22.49,39980,2021-03-15
7544,Sold,0xbc081c,0x0735b3,0.15Ξ ($77),"Dec 11, 2017",0.15,77,2017-12-11
7547,Sold,0x577ebc,11268359,"28.99Ξ ($52,078)","Mar 16, 2021",28.99,52078,2021-03-16
7550,Sold,0x00d7c9,GtC,0.25Ξ ($45),"Sep 08, 2019",0.25,45,2019-09-08
7552,Sold,0xd3e2e7,0x74be0a,"11Ξ ($19,949)","Feb 17, 2021",11,19949,2021-02-17
7552,Sold,0x19ac60,0xd3e2e7,"5Ξ ($5,558)","Jan 13, 2021",5,5558,2021-01-13
7553,Sold,7293485,0x50398f,"20Ξ ($40,415)","Apr 05, 2021",20,40415,2021-04-05
7554,Sold,chifoomi,0xda6bb8,"5.49Ξ ($9,222)","Feb 07, 2021",5.49,9222,2021-02-07
7554,Sold,redlione…,chifoomi,"5.49Ξ ($1,962)","Sep 29, 2020",5.49,1962,2020-09-29
7554,Sold,GoWest23,redlione…,"4.87Ξ ($1,749)","Sep 28, 2020",4.87,1749,2020-09-28
7554,Sold,0x470e9b,GoWest23,0.45Ξ ($78),"May 06, 2019",0.45,78,2019-05-06
7556,Sold,6249972,0x62bdc6,"19.99Ξ ($42,927)","Apr 12, 2021",19.99,42927,2021-04-12
7557,Sold,0xb44969,0x6fec47,"31Ξ ($60,972)","Feb 19, 2021",31,60972,2021-02-19
7557,Sold,VonMises,0xbf6ccf,"30Ξ ($18,150)","Dec 23, 2020",30,18150,2020-12-23
7557,Sold,Pranksy,VonMises,"15Ξ ($5,115)","Oct 08, 2020",15,5115,2020-10-08
7557,Sold,0x067034,Pranksy,"35Ξ ($12,527)","Sep 28, 2020",35,12527,2020-09-28
7557,Sold,Carlini8,0x067034,"30Ξ ($11,502)","Sep 19, 2020",30,11502,2020-09-19
7557,Sold,shilpixe…,Carlini8,"20Ξ ($7,313)","Sep 15, 2020",20,7313,2020-09-15
7558,Sold,0xc026a3,0xe05e48,"33Ξ ($57,784)","Mar 13, 2021",33,57784,2021-03-13
7558,Sold,TokenAng…,0xc026a3,"32Ξ ($57,684)","Feb 22, 2021",32,57684,2021-02-22
7558,Sold,0xfa1c0-…,TokenAng…,1Ξ ($210),"May 17, 2020",1,210,2020-05-17
7558,Sold,Dude_Nak…,0xfa1c0-…,0.68Ξ ($150),"Feb 08, 2020",0.68,150,2020-02-08
7558,Sold,Hemba,Dude_Nak…,0.10Ξ ($42),"Apr 03, 2018",0.1,42,2018-04-03
7562,Sold,Deeze,0x78b57b,"39.99Ξ ($58,767)","Feb 27, 2021",39.99,58767,2021-02-27
7562,Sold,0xbc8da2,Deeze,"14.90Ξ ($28,272)","Feb 18, 2021",14.9,28272,2021-02-18
7562,Sold,0x8234be,0xbc8da2,0.10Ξ ($81),"Dec 19, 2017",0.1,81,2017-12-19
7563,Sold,3van.eth,DANNY,"28Ξ ($33,790)","Jan 07, 2021",28,33790,2021-01-07
7563,Sold,2pac,3van.eth,"20.10Ξ ($11,662)","Dec 24, 2020",20.1,11662,2020-12-24
7563,Sold,curating…,2pac,"20Ξ ($11,901)","Dec 06, 2020",20,11901,2020-12-06
7564,Sold,0x21bc7f,beautifu…,"21Ξ ($38,237)","Mar 31, 2021",21,38237,2021-03-31
7564,Sold,natealex,0x927635,"4.40Ξ ($1,518)","Sep 25, 2020",4.4,1518,2020-09-25
7564,Sold,Hemba,natealex,1.40Ξ ($294),"May 20, 2020",1.4,294,2020-05-20
7565,Sold,0x0ec629,willholt…,"23.69Ξ ($39,905)","Mar 26, 2021",23.69,39905,2021-03-26
7565,Sold,0xc272ed,0x0ec629,"23Ξ ($42,017)","Mar 20, 2021",23,42017,2021-03-20
7568,Sold,3392101,10839993,"21.99Ξ ($34,864)","Mar 06, 2021",21.99,34864,2021-03-06
7568,Sold,3699717,3392101,"18Ξ ($27,551)","Mar 05, 2021",18,27551,2021-03-05
7569,Sold,0x4c1bd9…,VonMises,2.25Ξ ($478),"May 19, 2020",2.25,478,2020-05-19
7569,Sold,0x44f2d4,0x4c1bd9…,1Ξ ($234),"May 18, 2019",1,234,2019-05-18
7569,Sold,0xc2ac3c,0x44f2d4,0.15Ξ ($61),"Aug 06, 2018",0.15,61,2018-08-06
7569,Sold,0x8234be,0xb11d6a,0.05Ξ ($15),"Sep 30, 2017",0.05,15,2017-09-30
7570,Sold,2870205,12800693,0.50Ξ ($43),"Dec 13, 2018",0.5,43,2018-12-13
7571,Sold,0xf29711,0xb10004,"28Ξ ($59,137)","Apr 10, 2021",28,59137,2021-04-10
7571,Sold,0xdcf227,0xf29711,"28Ξ ($45,072)","Mar 03, 2021",28,45072,2021-03-03
7571,Sold,0x34e801,0xdcf227,"8.50Ξ ($14,865)","Feb 08, 2021",8.5,14865,2021-02-08
7571,Sold,0x13816f,0x34e801,"8.88Ξ ($11,689)","Feb 01, 2021",8.88,11689,2021-02-01
7571,Sold,Arsonic,0x13816f,"4.90Ξ ($1,681)","Oct 02, 2020",4.9,1681,2020-10-02
7571,Sold,Hemba,Arsonic,1.20Ξ ($480),"Aug 04, 2020",1.2,480,2020-08-04
7575,Sold,NeonNFT,kyoma,"2.95Ξ ($1,014)","Sep 25, 2020",2.95,1014,2020-09-25
7575,Sold,cryptoke…,NeonNFT,2.74Ξ ($945),"Sep 25, 2020",2.74,945,2020-09-25
7575,Sold,Pranksy,cryptoke…,2.49Ξ ($874),"Sep 24, 2020",2.49,874,2020-09-24
7575,Sold,MrNFT,Pranksy,2.30Ξ ($752),"Sep 24, 2020",2.3,752,2020-09-24
7575,Sold,Pranksy,MrNFT,1.78Ξ ($678),"Sep 20, 2020",1.78,678,2020-09-20
7575,Sold,0x0a4eaf…,Pranksy,1.97Ξ ($735),"Sep 14, 2020",1.97,735,2020-09-14
7575,Sold,0x005700,0x0a4eaf…,0.10Ξ ($29),"Sep 12, 2017",0.1,29,2017-09-12
7576,Sold,0xddfdcb,0x311a9e,"27.49Ξ ($49,708)","Mar 12, 2021",27.49,49708,2021-03-12
7576,Sold,EliteCat…,0xddfdcb,"9.69Ξ ($17,683)","Feb 14, 2021",9.69,17683,2021-02-14
7576,Sold,0x470e9b,GoWest23,0.50Ξ ($87),"May 06, 2019",0.5,87,2019-05-06
7578,Sold,55241,7435267,0.05Ξ ($28),"May 27, 2018",0.05,28,2018-05-27
7580,Sold,14966261,3623889,1.50Ξ ($368),"May 23, 2019",1.5,368,2019-05-23
7591,Sold,5734076,8704847,"22.49Ξ ($40,770)","Mar 11, 2021",22.49,40770,2021-03-11
7592,Sold,5734076,TheNat,"21Ξ ($37,373)","Feb 16, 2021",21,37373,2021-02-16
7593,Sold,lemondro…,0xce7a9f,"9.50Ξ ($16,488)","Feb 08, 2021",9.5,16488,2021-02-08
7593,Sold,Novo311,lemondro…,"5.73Ξ ($1,944)","Oct 08, 2020",5.73,1944,2020-10-08
7593,Sold,ross_VRO…,Novo311,"2.99Ξ ($1,098)","Sep 14, 2020",2.99,1098,2020-09-14
7593,Sold,Hemba,ross_VRO…,1.50Ξ ($302),"May 26, 2020",1.5,302,2020-05-26
7594,Sold,0xca8fe4,Kataster…,"33.99Ξ ($51,949)","Feb 23, 2021",33.99,51949,2021-02-23
7595,Sold,784659,45688,0.30Ξ ($83),"Jul 03, 2017",0.3,83,2017-07-03
7598,Sold,ChrisR,0xfb60bb,0.94Ξ ($317),"Jul 30, 2020",0.94,317,2020-07-30
7598,Sold,0xb6be4d,Pranksy,0.90Ξ ($182),"May 22, 2020",0.9,182,2020-05-22
7599,Sold,11029156,10362432,0.30Ξ ($256),"Feb 23, 2018",0.3,256,2018-02-23
7599,Sold,10337275,11029156,0.10Ξ ($74),"Dec 27, 2017",0.1,74,2017-12-27
7602,Sold,CPyrc,0x78e6fb,"16.50Ξ ($21,850)","Jan 27, 2021",16.5,21850,2021-01-27
7602,Sold,0x2fdacd,CPyrc,"12Ξ ($13,233)","Jan 13, 2021",12,13233,2021-01-13
7603,Sold,0x577ebc,3819824,"13.50Ξ ($21,560)","Feb 07, 2021",13.5,21560,2021-02-07
7605,Sold,CPyrc,0xf40b3d,2.79Ξ ($913),"Sep 24, 2020",2.79,913,2020-09-24
7605,Sold,VonMises,CPyrc,2Ξ ($753),"Sep 15, 2020",2,753,2020-09-15
7605,Sold,Hemba,VonMises,1.35Ξ ($327),"Jun 06, 2020",1.35,327,2020-06-06
7606,Sold,0x5b098b,7823584,0.25Ξ ($69),"Jul 03, 2017",0.25,69,2017-07-03
7608,Sold,MrNFT,0xf40b3d,2.16Ξ ($706),"Sep 24, 2020",2.16,706,2020-09-24
7608,Sold,DojiFlip,MrNFT,1.70Ξ ($636),"Sep 21, 2020",1.7,636,2020-09-21
7608,Sold,redlione…,DojiFlip,2.20Ξ ($809),"Sep 15, 2020",2.2,809,2020-09-15
7608,Sold,Pranksy,redlione…,1.50Ξ ($565),"Sep 14, 2020",1.5,565,2020-09-14
7608,Sold,0xe5e64f,Pranksy,1.40Ξ ($514),"Sep 11, 2020",1.4,514,2020-09-11
7608,Sold,ChrisR,0xe5e64f,0.88Ξ ($340),"Aug 03, 2020",0.88,340,2020-08-03
7608,Sold,0xb6be4d,Pranksy,0.90Ξ ($182),"May 22, 2020",0.9,182,2020-05-22
7609,Sold,0xb941f9,0x54685c,"17Ξ ($32,834)","Apr 01, 2021",17,32834,2021-04-01
7609,Sold,na,0xb941f9,"11Ξ ($20,021)","Feb 17, 2021",11,20021,2021-02-17
7609,Sold,0x02751f,na,0.20Ξ ($39),"Jul 30, 2017",0.2,39,2017-07-30
7610,Sold,0xd3e2e7,0xea1218,"22.67Ξ ($40,964)","Mar 12, 2021",22.67,40964,2021-03-12
7610,Sold,0x84c920,0xd3e2e7,"16.66Ξ ($25,508)","Mar 05, 2021",16.66,25508,2021-03-05
7610,Sold,gr8wxl,0x84c920,"21Ξ ($31,117)","Mar 05, 2021",21,31117,2021-03-05
7610,Sold,0x02751f,gr8wxl,0.30Ξ ($67),"Aug 03, 2017",0.3,67,2017-08-03
7611,Sold,TokenAng…,0x0ec629,"35Ξ ($64,043)","Mar 20, 2021",35,64043,2021-03-20
7611,Sold,0x00d7c9,TokenAng…,0.40Ξ ($85),"Aug 12, 2019",0.4,85,2019-08-12
7613,Sold,cryptodu…,0xf4b4a5,"57Ξ ($106,384)","Mar 14, 2021",57,106384,2021-03-14
7613,Sold,curating…,cryptodu…,"6Ξ ($3,819)","Dec 23, 2020",6,3819,2020-12-23
7615,Sold,8533182,13234691,0.11Ξ ($55),"Apr 14, 2018",0.11,55,2018-04-14
7619,Sold,0x11c9a7,Dude_Nak…,1.85Ξ ($714),"Sep 18, 2020",1.85,714,2020-09-18
7619,Sold,CPyrc,0x11c9a7,1.75Ξ ($646),"Sep 11, 2020",1.75,646,2020-09-11
7619,Sold,Hemba,CPyrc,1.10Ξ ($371),"Sep 07, 2020",1.1,371,2020-09-07
7620,Sold,0x5fd36a,0x623fc4,"44.65Ξ ($80,821)","Mar 11, 2021",44.65,80821,2021-03-11
7620,Sold,shilpixe…,0x5fd36a,"41Ξ ($65,407)","Feb 23, 2021",41,65407,2021-02-23
7621,Sold,5734076,1009967,"30Ξ ($54,579)","Mar 17, 2021",30,54579,2021-03-17
7623,Sold,0x470e9b,Kenney,0.25Ξ ($139),"Mar 19, 2018",0.25,139,2018-03-19
7624,Sold,shilpixe…,0x6336fb,"25Ξ ($51,997)","Apr 02, 2021",25,51997,2021-04-02
7625,Sold,0xc69ae4,0xeb725f,"16.60Ξ ($30,637)","Feb 17, 2021",16.6,30637,2021-02-17
7625,Sold,0x1a96af,0xc69ae4,1.52Ξ ($311),"May 25, 2020",1.52,311,2020-05-25
7627,Sold,Hex,RayoSchn…,"4Ξ ($1,543)","Nov 01, 2020",4,1543,2020-11-01
7627,Sold,Hemba,Hex,2.80Ξ ($983),"Sep 26, 2020",2.8,983,2020-09-26
7628,Sold,0x033ee7,0x50664e,"13.29Ξ ($25,217)","Feb 18, 2021",13.29,25217,2021-02-18
7628,Sold,0xe4c479,0x033ee7,"2.90Ξ ($1,031)","Sep 26, 2020",2.9,1031,2020-09-26
7628,Sold,Hemba,0xe4c479,"2.75Ξ ($1,046)","Sep 20, 2020",2.75,1046,2020-09-20
7629,Sold,Hemba,0xba5689,0.40Ξ ($47),"Nov 25, 2018",0.4,47,2018-11-25
7629,Sold,0x682c30,Hemba,0.28Ξ ($74),"Jul 05, 2017",0.28,74,2017-07-05
7630,Sold,evkort,VonMises,"16.50Ξ ($5,903)","Sep 28, 2020",16.5,5903,2020-09-28
7630,Sold,shilpixe…,evkort,"9.99Ξ ($3,664)","Sep 14, 2020",9.99,3664,2020-09-14
7631,Sold,0xdc569c,Hans,1.24Ξ ($281),"Jul 03, 2020",1.24,281,2020-07-03
7631,Sold,0x48db19,0xdc569c,0.12Ξ ($28),"Jun 30, 2020",0.12,28,2020-06-30
7632,Sold,2pac,0x6ef237,"5Ξ ($6,425)","Jan 10, 2021",5,6425,2021-01-10
7632,Sold,0xde0193,2pac,"5Ξ ($3,664)","Dec 31, 2020",5,3664,2020-12-31
7633,Sold,0x10ca49,0xbec69d,"16Ξ ($32,269)","Apr 04, 2021",16,32269,2021-04-04
7633,Sold,0xaea8e3,0x10ca49,"24.99Ξ ($39,084)","Mar 25, 2021",24.99,39084,2021-03-25
7633,Sold,0x62bdc6,0xaea8e3,"21.60Ξ ($39,219)","Mar 19, 2021",21.6,39219,2021-03-19
7633,Sold,0xa2df60,0x62bdc6,"21.50Ξ ($38,628)","Mar 18, 2021",21.5,38628,2021-03-18
7633,Sold,0x033ee7,0xa2df60,"13.97Ξ ($26,801)","Feb 18, 2021",13.97,26801,2021-02-18
7633,Sold,0xe4c479,0x033ee7,"2.90Ξ ($1,031)","Sep 26, 2020",2.9,1031,2020-09-26
7633,Sold,Hemba,0xe4c479,2.50Ξ ($951),"Sep 20, 2020",2.5,951,2020-09-20
7634,Sold,0xddfdcb,0xb5696e,"26.99Ξ ($55,271)","Apr 08, 2021",26.99,55271,2021-04-08
7634,Sold,0xdc1a60,0xddfdcb,"22Ξ ($43,404)","Feb 21, 2021",22,43404,2021-02-21
7634,Sold,EliteCat…,0xdc1a60,"18.79Ξ ($34,679)","Feb 17, 2021",18.79,34679,2021-02-17
7634,Sold,0x00d7c9,GoWest23,0.50Ξ ($87),"May 06, 2019",0.5,87,2019-05-06
7636,Sold,9155827,4553835,"8.49Ξ ($15,669)","Feb 14, 2021",8.49,15669,2021-02-14
7637,Sold,shilpixe…,0x3364f3,"43Ξ ($74,043)","Mar 27, 2021",43,74043,2021-03-27
7638,Sold,0x0b30fd,Cyrus,0.29Ξ ($38),"Dec 25, 2018",0.29,38,2018-12-25
7641,Sold,Pranksy,VonMises,1.65Ξ ($330),"May 15, 2020",1.65,330,2020-05-15
7641,Sold,0x1a96af,Pranksy,0.94Ξ ($160),"Apr 17, 2020",0.94,160,2020-04-17
7642,Sold,evkort,valko.et…,"6.25Ξ ($2,217)","Sep 29, 2020",6.25,2217,2020-09-29
7642,Sold,0x69405f,evkort,"5.10Ξ ($1,862)","Sep 28, 2020",5.1,1862,2020-09-28
7642,Sold,0x988860,0x69405f,"4.88Ξ ($1,770)","Sep 28, 2020",4.88,1770,2020-09-28
7642,Sold,0x5b098b,0x988860,"3.70Ξ ($1,331)","Sep 28, 2020",3.7,1331,2020-09-28
7645,Sold,0x033b8f,0xa6f637,"30.80Ξ ($56,524)","Mar 30, 2021",30.8,56524,2021-03-30
7645,Sold,EliteCat…,0x033b8f,"28.99Ξ ($44,453)","Mar 05, 2021",28.99,44453,2021-03-05
7645,Sold,shilpixe…,GoWest23,2Ξ ($426),"May 09, 2020",2,426,2020-05-09
7646,Sold,renaissa…,0x161f7c,"12Ξ ($21,012)","Feb 16, 2021",12,21012,2021-02-16
7646,Sold,CPyrc,renaissa…,"5.25Ξ ($1,881)","Sep 28, 2020",5.25,1881,2020-09-28
7646,Sold,0x067034,CPyrc,"4.40Ξ ($1,577)","Sep 28, 2020",4.4,1577,2020-09-28
7646,Sold,Carlini8,0x067034,"5Ξ ($1,828)","Sep 15, 2020",5,1828,2020-09-15
7646,Sold,0x27c79a,Carlini8,"2.95Ξ ($1,109)","Sep 14, 2020",2.95,1109,2020-09-14
7646,Sold,0x0af8cc,0x27c79a,0.55Ξ ($107),"Apr 26, 2020",0.55,107,2020-04-26
7646,Sold,0x00d7c9,0x0af8cc,0.05Ξ ($25),"Jun 12, 2018",0.05,25,2018-06-12
7647,Sold,0x27c79a,0x98c488,0.75Ξ ($151),"May 17, 2020",0.75,151,2020-05-17
7647,Sold,shilpixe…,0x27c79a,0.50Ξ ($72),"Jan 07, 2020",0.5,72,2020-01-07
7651,Sold,0xca8fe4,934967,"10.89Ξ ($18,065)","Feb 05, 2021",10.89,18065,2021-02-05
7652,Sold,Hemba,0x8adbff,0.15Ξ ($105),"Dec 13, 2017",0.15,105,2017-12-13
7654,Sold,Dude_Nak…,0xa9c206,1.45Ξ ($273),"Nov 13, 2019",1.45,273,2019-11-13
7654,Sold,0x58164b,Dude_Nak…,0.10Ξ ($62),"Apr 22, 2018",0.1,62,2018-04-22
7656,Sold,0xf1b658,0x5e43e1,"75Ξ ($148,032)","Feb 19, 2021",75,148032,2021-02-19
7656,Sold,TokenAng…,0xf1b658,"60Ξ ($108,517)","Feb 14, 2021",60,108517,2021-02-14
7656,Sold,sov,TokenAng…,"18Ξ ($3,712)","May 23, 2020",18,3712,2020-05-23
7656,Sold,0xa9bfa9,sov,0.60Ξ ($135),"Aug 03, 2017",0.6,135,2017-08-03
7658,Sold,0x087173,0x6611fe,"25Ξ ($44,630)","Mar 15, 2021",25,44630,2021-03-15
7658,Sold,Michel_M…,0x087173,"3.29Ξ ($1,135)","Sep 25, 2020",3.29,1135,2020-09-25
7658,Sold,Carlini8,Michel_M…,"3Ξ ($1,038)","Sep 24, 2020",3,1038,2020-09-24
7658,Sold,Hemba,Carlini8,2.30Ξ ($865),"Sep 14, 2020",2.3,865,2020-09-14
7659,Sold,Hemba,0x7760e0,0.15Ξ ($51),"Oct 14, 2017",0.15,51,2017-10-14
7662,Sold,4763435,6167352,"24Ξ ($46,017)","Mar 13, 2021",24,46017,2021-03-13
7662,Sold,386825,4763435,"18.98Ξ ($31,702)","Mar 06, 2021",18.98,31702,2021-03-06
7662,Sold,3699717,386825,"18.50Ξ ($28,096)","Mar 05, 2021",18.5,28096,2021-03-05
7666,Sold,0xfb077c,9883041,0.60Ξ ($278),"Dec 03, 2017",0.6,278,2017-12-03
7667,Sold,0xa5d0d5,0x161dba,"27.50Ξ ($49,021)","Mar 17, 2021",27.5,49021,2021-03-17
7667,Sold,aurelia-…,0xa5d0d5,"26Ξ ($46,573)","Mar 16, 2021",26,46573,2021-03-16
7667,Sold,0x47d4f2,aurelia-…,"25Ξ ($45,322)","Mar 12, 2021",25,45322,2021-03-12
7668,Sold,0x4ea36c,Gmugr,"18.80Ξ ($40,111)","Apr 10, 2021",18.8,40111,2021-04-10
7668,Sold,Deeze,0x8847be,"15.29Ξ ($32,437)","Apr 06, 2021",15.29,32437,2021-04-06
7673,Sold,4707570,6689278,"22Ξ ($37,579)","Feb 22, 2021",22,37579,2021-02-22
7674,Sold,0x47d4f2,3387770,"67Ξ ($126,244)","Mar 15, 2021",67,126244,2021-03-15
7675,Sold,4707570,2142092,"22.90Ξ ($37,524)","Feb 24, 2021",22.9,37524,2021-02-24
7677,Sold,0x47d4f2,Deeze,"56.90Ξ ($85,188)","Mar 05, 2021",56.9,85188,2021-03-05
7678,Sold,0x47d4f2,0xda6645,"19.70Ξ ($33,016)","Mar 07, 2021",19.7,33016,2021-03-07
7680,Sold,4707570,3066809,"27.90Ξ ($44,254)","Feb 25, 2021",27.9,44254,2021-02-25
7682,Sold,4707570,11626205,"31.40Ξ ($46,471)","Feb 27, 2021",31.4,46471,2021-02-27
7684,Sold,3387770,6689278,"29.50Ξ ($52,663)","Mar 15, 2021",29.5,52663,2021-03-15
7684,Sold,2340107,3387770,"26.95Ξ ($41,434)","Mar 04, 2021",26.95,41434,2021-03-04
7684,Sold,4707570,4769884,"20Ξ ($34,292)","Feb 22, 2021",20,34292,2021-02-22
7691,Sold,0xcbd482,7435267,0.05Ξ ($14),"Jun 27, 2017",0.05,14,2017-06-27
7692,Sold,jmg,MBK,0.58Ξ ($78),"Dec 29, 2019",0.58,78,2019-12-29
7692,Sold,0x0b30fd,0x00bd3a,0.33Ξ ($76),"Jul 22, 2017",0.33,76,2017-07-22
7693,Sold,13275108,2855716,"9.50Ξ ($17,299)","Feb 16, 2021",9.5,17299,2021-02-16
7695,Sold,jmg,district…,"7.99Ξ ($2,930)","Sep 11, 2020",7.99,2930,2020-09-11
7695,Sold,shilpixe…,jmg,2Ξ ($373),"Apr 25, 2020",2,373,2020-04-25
7696,Sold,12878075,15439765,"21Ξ ($38,313)","Mar 12, 2021",21,38313,2021-03-12
7700,Sold,0x58164b,Kenney,0.14Ξ ($105),"May 07, 2018",0.14,105,2018-05-07
7702,Sold,0x5aaeb9,gaus,2.65Ξ ($925),"Sep 25, 2020",2.65,925,2020-09-25
7702,Sold,0xf28820,0x5aaeb9,2.45Ξ ($848),"Sep 24, 2020",2.45,848,2020-09-24
7702,Sold,Pranksy,0xf28820,1.99Ξ ($674),"Sep 23, 2020",1.99,674,2020-09-23
7702,Sold,barthazi…,Pranksy,1.70Ξ ($573),"Sep 22, 2020",1.7,573,2020-09-22
7702,Sold,Pranksy,barthazi…,1.88Ξ ($687),"Sep 15, 2020",1.88,687,2020-09-15
7702,Sold,juggerna…,alxo,0.25Ξ ($38),"Nov 23, 2019",0.25,38,2019-11-23
7705,Sold,0x84c920,0x53102d,"26.50Ξ ($41,616)","Mar 02, 2021",26.5,41616,2021-03-02
7705,Sold,0xa899d2,0x84c920,"19.99Ξ ($30,418)","Mar 01, 2021",19.99,30418,2021-03-01
7705,Sold,lordtyle…,0xc9ab58,"6Ξ ($4,242)","Dec 27, 2020",6,4242,2020-12-27
7705,Sold,0xbfa319,lordtyle…,"5Ξ ($1,729)","Sep 25, 2020",5,1729,2020-09-25
7705,Sold,0xb6be4d,0xbfa319,0.90Ξ ($244),"Feb 16, 2020",0.9,244,2020-02-16
7706,Sold,shilpixe…,ArtBlock…,1Ξ ($205),"May 22, 2020",1,205,2020-05-22
7707,Sold,0x0b88fd,heeee.et…,"68Ξ ($124,663)","Mar 20, 2021",68,124663,2021-03-20
7708,Sold,12196282,6811088,"13.50Ξ ($24,477)","Feb 17, 2021",13.5,24477,2021-02-17
7709,Sold,Michel_M…,0x13816f,"5Ξ ($1,789)","Sep 28, 2020",5,1789,2020-09-28
7709,Sold,Carlini8,Michel_M…,"3Ξ ($1,038)","Sep 24, 2020",3,1038,2020-09-24
7709,Sold,DANNY,Carlini8,2.20Ξ ($814),"Sep 15, 2020",2.2,814,2020-09-15
7709,Sold,Hemba,DANNY,1.10Ξ ($222),"May 14, 2020",1.1,222,2020-05-14
7710,Sold,shilpixe…,0x6336fb,"22Ξ ($45,758)","Apr 02, 2021",22,45758,2021-04-02
7711,Sold,shilpixe…,0x98c488,1Ξ ($205),"May 24, 2020",1,205,2020-05-24
7714,Sold,0xbc081c,0x7f6ca7,0.15Ξ ($65),"Dec 10, 2017",0.15,65,2017-12-10
7715,Sold,0x5e43e1,0x3364f3,"28Ξ ($47,712)","Mar 28, 2021",28,47712,2021-03-28
7715,Sold,0x1dd533,0x5e43e1,"23Ξ ($43,847)","Feb 18, 2021",23,43847,2021-02-18
7715,Sold,MrTpunks…,0x1dd533,"12Ξ ($21,106)","Feb 09, 2021",12,21106,2021-02-09
7715,Sold,ross_VRO…,0x1f8add,2.40Ξ ($460),"May 10, 2020",2.4,460,2020-05-10
7715,Sold,0xe45df5,ross_VRO…,1.20Ξ ($166),"Mar 28, 2019",1.2,166,2019-03-28
7716,Sold,0xcd2c66,0x167f15,"25.95Ξ ($53,917)","Apr 08, 2021",25.95,53917,2021-04-08
7716,Sold,cryptosa…,0xcd2c66,1Ξ ($233),"Jun 11, 2020",1,233,2020-06-11
7716,Sold,Hemba,cryptosa…,0.88Ξ ($176),"May 21, 2020",0.88,176,2020-05-21
7718,Sold,0x19ac60,azkaban,"4.90Ξ ($5,362)","Jan 12, 2021",4.9,5362,2021-01-12
7719,Sold,0xbc081c,0x7f6ca7,0.15Ξ ($43),"Nov 02, 2017",0.15,43,2017-11-02
7720,Sold,8702240,3844287,"26Ξ ($38,882)","Feb 26, 2021",26,38882,2021-02-26
7720,Sold,7293485,8702240,"26Ξ ($49,868)","Feb 22, 2021",26,49868,2021-02-22
7721,Sold,7293485,13446246,"22Ξ ($47,394)","Apr 12, 2021",22,47394,2021-04-12
7724,Sold,0xbc081c,sov,0.15Ξ ($46),"Sep 27, 2017",0.15,46,2017-09-27
7725,Sold,Hemba,0xd27e3f,0.46Ξ ($177),"Aug 30, 2017",0.46,177,2017-08-30
7728,Sold,11268359,2732466,"56.99Ξ ($103,976)","Mar 17, 2021",56.99,103976,2021-03-17
7728,Sold,5734076,11268359,"47.99Ξ ($85,030)","Mar 17, 2021",47.99,85030,2021-03-17
7729,Sold,Pranksy,TokenAng…,0.40Ξ ($70),"Sep 05, 2019",0.4,70,2019-09-05
7729,Sold,0x00d7c9,Pranksy,0.25Ξ ($45),"Sep 02, 2019",0.25,45,2019-09-02
7730,Sold,0x13816f,0x4551fd,"14.50Ξ ($27,859)","Feb 19, 2021",14.5,27859,2021-02-19
7730,Sold,Michel_M…,0x13816f,"5.75Ξ ($2,034)","Sep 29, 2020",5.75,2034,2020-09-29
7730,Sold,0x48db19,Michel_M…,1Ξ ($351),"Sep 06, 2020",1,351,2020-09-06
7731,Sold,9155827,13252568,"28.49Ξ ($50,785)","Mar 21, 2021",28.49,50785,2021-03-21
7731,Sold,13275108,9155827,"23Ξ ($41,038)","Mar 21, 2021",23,41038,2021-03-21
7733,Sold,0x561786,0xd41d35,"5Ξ ($6,255)","Jan 23, 2021",5,6255,2021-01-23
7733,Sold,0x5b098b,0x561786,"5Ξ ($6,626)","Jan 10, 2021",5,6626,2021-01-10
7733,Sold,W_M_Peas…,0x5b098b,"5.85Ξ ($2,124)","Sep 28, 2020",5.85,2124,2020-09-28
7733,Sold,Pranksy,W_M_Peas…,"4.99Ξ ($1,821)","Sep 28, 2020",4.99,1821,2020-09-28
7733,Sold,Carlini8,Pranksy,"3.99Ξ ($1,427)","Sep 28, 2020",3.99,1427,2020-09-28
7733,Sold,0xe4c479,Carlini8,"3.80Ξ ($1,355)","Sep 28, 2020",3.8,1355,2020-09-28
7733,Sold,Hemba,0xe4c479,"3.25Ξ ($1,236)","Sep 20, 2020",3.25,1236,2020-09-20
7735,Sold,11004839,14650138,0.29Ξ ($83),"Jun 27, 2017",0.29,83,2017-06-27
7736,Sold,0x682c30,6689278,0.25Ξ ($66),"Jul 06, 2017",0.25,66,2017-07-06
7739,Sold,0xf138eb,12800693,0.20Ξ ($56),"Jun 30, 2017",0.2,56,2017-06-30
7740,Sold,0x0b30fd,15329208,"3.31Ξ ($1,578)","Nov 19, 2020",3.31,1578,2020-11-19
7741,Sold,GoWest23,0x568cf5,"5.50Ξ ($1,946)","Sep 29, 2020",5.5,1946,2020-09-29
7741,Sold,0x682c30,GoWest23,0.49Ξ ($85),"May 06, 2019",0.49,85,2019-05-06
7742,Sold,0x8b4eac,0xd65973,"20Ξ ($38,336)","Feb 22, 2021",20,38336,2021-02-22
7742,Sold,niwin,valdon,"6.90Ξ ($2,503)","Sep 28, 2020",6.9,2503,2020-09-28
7742,Sold,0x5b098b,niwin,"2.94Ξ ($1,035)","Sep 26, 2020",2.94,1035,2020-09-26
7744,Sold,1665597,AlottaMo…,"2.70Ξ ($1,290)","Nov 18, 2020",2.7,1290,2020-11-18
7744,Sold,6542117,0x196a3d,"3Ξ ($1,376)","Nov 07, 2020",3,1376,2020-11-07
7744,Sold,8220765,0x42306d,0.59Ξ ($133),"Feb 28, 2020",0.59,133,2020-02-28
7744,Sold,6827056,0x7d705d,0.49Ξ ($66),"Jan 04, 2020",0.49,66,2020-01-04
7746,Sold,0xe77311,12093399,"55Ξ ($78,726)","Mar 01, 2021",55,78726,2021-03-01
7746,Sold,0x00d7c9,14271977,0.10Ξ ($58),"May 31, 2018",0.1,58,2018-05-31
7750,Sold,EliteCat…,jamis.et…,"19.25Ξ ($34,043)","Feb 17, 2021",19.25,34043,2021-02-17
7750,Sold,007,GoWest23,0.85Ξ ($143),"Apr 08, 2020",0.85,143,2020-04-08
7750,Sold,TweetyPi…,007,0.70Ξ ($115),"Apr 07, 2020",0.7,115,2020-04-07
7750,Sold,0xdc569c,TweetyPi…,0.75Ξ ($105),"Mar 25, 2020",0.75,105,2020-03-25
7750,Sold,0xa1c78e…,0xdc569c,0.20Ξ ($27),"Mar 24, 2020",0.2,27,2020-03-24
7750,Sold,0x00d7c9,0xa1c78e…,0.10Ξ ($31),"Nov 13, 2017",0.1,31,2017-11-13
7751,Sold,6249972,niwin,"31.50Ξ ($56,202)","Mar 18, 2021",31.5,56202,2021-03-18
7752,Sold,0x0e9aed,0x2978f0,"23.99Ξ ($52,423)","Apr 10, 2021",23.99,52423,2021-04-10
7752,Sold,0xe35d84,0x0e9aed,"20.99Ξ ($43,184)","Apr 08, 2021",20.99,43184,2021-04-08
7752,Sold,3van.eth,0x9c355c,"15.49Ξ ($29,800)","Feb 18, 2021",15.49,29800,2021-02-18
7752,Sold,0x90be4e,3van.eth,"8.99Ξ ($16,146)","Feb 13, 2021",8.99,16146,2021-02-13
7752,Sold,3van.eth,0x90be4e,"8.99Ξ ($15,613)","Feb 10, 2021",8.99,15613,2021-02-10
7752,Sold,0xca8fe4,3van.eth,"4.99Ξ ($5,058)","Jan 04, 2021",4.99,5058,2021-01-04
7754,Sold,13275108,3333383,"7.30Ξ ($13,501)","Feb 14, 2021",7.3,13501,2021-02-14
7755,Sold,cryptosa…,0xdac01f,"5.49Ξ ($9,433)","Feb 08, 2021",5.49,9433,2021-02-08
7755,Sold,0xca8fe4,cryptosa…,"4.99Ξ ($6,837)","Feb 01, 2021",4.99,6837,2021-02-01
7756,Sold,0x9e199d,Cry,"27Ξ ($9,261)","Sep 07, 2020",27,9261,2020-09-07
7756,Sold,jmg,0x9e199d,3.59Ξ ($459),"Jan 10, 2019",3.59,459,2019-01-10
7756,Sold,0xf5099e,jmg,2.50Ξ ($327),"Dec 25, 2018",2.5,327,2018-12-25
7756,Sold,0xa9bfa9,0xa0a59c,1Ξ ($224),"Aug 03, 2017",1,224,2017-08-03
7757,Sold,OnlyToas…,0xbac42c,"11Ξ ($20,083)","Feb 14, 2021",11,20083,2021-02-14
7757,Sold,0x577ebc,OnlyToas…,"9.86Ξ ($18,007)","Feb 14, 2021",9.86,18007,2021-02-14
7758,Sold,tencent,redlione…,"24Ξ ($49,608)","Apr 08, 2021",24,49608,2021-04-08
7758,Sold,point-gr…,tencent,"27.50Ξ ($50,143)","Mar 20, 2021",27.5,50143,2021-03-20
7758,Sold,heeee.et…,point-gr…,"26.99Ξ ($49,440)","Mar 19, 2021",26.99,49440,2021-03-19
7758,Sold,0x939183,heeee.et…,"25Ξ ($44,567)","Mar 19, 2021",25,44567,2021-03-19
7758,Sold,jmg,0x939183,0.29Ξ ($29),"Dec 05, 2018",0.29,29,2018-12-05
7758,Sold,DjangoBi…,jmg,0.14Ξ ($28),"Oct 25, 2018",0.14,28,2018-10-25
7758,Sold,0x515a82,0x9be1c7,0.35Ξ ($97),"Jul 03, 2017",0.35,97,2017-07-03
7760,Sold,10074244,12519911,5Ξ ($625),"Dec 27, 2019",5,625,2019-12-27
7762,Sold,0x691b87,0xfbec67,"28.70Ξ ($47,334)","Feb 24, 2021",28.7,47334,2021-02-24
7762,Sold,0x607690,0x691b87,"24Ξ ($35,823)","Feb 23, 2021",24,35823,2021-02-23
7762,Sold,0xe4c479,0x607690,"3Ξ ($1,041)","Sep 25, 2020",3,1041,2020-09-25
7762,Sold,Hemba,0xe4c479,"3Ξ ($1,141)","Sep 20, 2020",3,1141,2020-09-20
7763,Sold,0x6f4a2d,jmg,"25.00Ξ ($42,685)","Feb 08, 2021",25,42685,2021-02-08
7764,Sold,0xe71274,0xa698ca,"12.80Ξ ($25,468)","Feb 20, 2021",12.8,25468,2021-02-20
7764,Sold,0xc155f9,0xe71274,"10.88Ξ ($19,966)","Feb 17, 2021",10.88,19966,2021-02-17
7764,Sold,0xe4c479,0xc155f9,2.75Ξ ($969),"Sep 26, 2020",2.75,969,2020-09-26
7764,Sold,Hemba,0xe4c479,2.50Ξ ($951),"Sep 20, 2020",2.5,951,2020-09-20
7765,Sold,stazie,0x2b18e9,"24.50Ξ ($42,900)","Mar 13, 2021",24.5,42900,2021-03-13
7765,Sold,0x8234be,stazie,0.10Ξ ($67),"May 17, 2018",0.1,67,2018-05-17
7766,Sold,Hemba,0x9e199d,1.05Ξ ($367),"Sep 07, 2020",1.05,367,2020-09-07
7768,Sold,7293485,13511660,"24.50Ξ ($46,008)","Feb 22, 2021",24.5,46008,2021-02-22
7771,Sold,Hemba,CryptoEa…,2.50Ξ ($854),"Sep 23, 2020",2.5,854,2020-09-23
7772,Sold,0x561786,nanexcoo…,"21.50Ξ ($36,725)","Feb 22, 2021",21.5,36725,2021-02-22
7772,Sold,Woo,0x561786,"4.20Ξ ($5,254)","Jan 23, 2021",4.2,5254,2021-01-23
7772,Sold,0xa1bd81,Woo,"4.18Ξ ($2,584)","Dec 03, 2020",4.18,2584,2020-12-03
7772,Sold,Hemba,0xa1bd81,"3Ξ ($1,039)","Sep 25, 2020",3,1039,2020-09-25
7774,Sold,7293485,4205269,"8.70Ξ ($15,651)","Feb 16, 2021",8.7,15651,2021-02-16
7777,Sold,2pac,TokenAng…,"10Ξ ($6,427)","Dec 26, 2020",10,6427,2020-12-26
7777,Sold,0x7a37a1,2pac,"6.50Ξ ($3,798)","Dec 14, 2020",6.5,3798,2020-12-14
7777,Sold,0x82f3d9,0x7a37a1,"3Ξ ($1,648)","Dec 11, 2020",3,1648,2020-12-11
7777,Sold,0x0cea5b,0x82f3d9,0.50Ξ ($639),"Jan 15, 2018",0.5,639,2018-01-15
7780,Sold,0x1a96af,Catdog,0.53Ξ ($104),"Apr 28, 2020",0.53,104,2020-04-28
7785,Sold,0x58164b,CyrusOld,0.07Ξ ($37),"Apr 18, 2018",0.07,37,2018-04-18
7788,Sold,0x0642f6,1677078,"16Ξ ($30,902)","Apr 01, 2021",16,30902,2021-04-01
7790,Sold,Deeze,0x031c78,"22.69Ξ ($46,829)","Apr 08, 2021",22.69,46829,2021-04-08
7790,Sold,0xca8fe4,Deeze,"17.50Ξ ($36,173)","Apr 08, 2021",17.5,36173,2021-04-08
7791,Sold,snax,0x283d4f,"8.50Ξ ($14,786)","Feb 10, 2021",8.5,14786,2021-02-10
7791,Sold,Hemba,snax,0.16Ξ ($184),"Jan 20, 2018",0.16,184,2018-01-20
7792,Sold,55241,Kenney,0.10Ξ ($59),"May 26, 2018",0.1,59,2018-05-26
7795,Sold,Pranksy,Kataster…,0.75Ξ ($128),"Apr 21, 2020",0.75,128,2020-04-21
7798,Sold,733437,7823584,0.16Ξ ($47),"Jun 29, 2017",0.16,47,2017-06-29
7801,Sold,Hemba,Pixls,1.15Ξ ($234),"May 22, 2020",1.15,234,2020-05-22
7802,Sold,14966261,0x7c00c9…,1.60Ξ ($221),"Jan 08, 2020",1.6,221,2020-01-08
7804,Sold,0x03911f,0xf4b4a5,4.2KΞ ($7.57M),"Mar 11, 2021",4200,7570000,2021-03-11
7804,Sold,straybit…,0x03911f,"12Ξ ($14,988)","Jan 10, 2018",12,14988,2018-01-10
7807,Sold,ross_VRO…,7478,0.65Ξ ($118),"Feb 01, 2020",0.65,118,2020-02-01
7807,Sold,Goop,ross_VRO…,0.54Ξ ($77),"Jan 07, 2020",0.54,77,2020-01-07
7807,Sold,Pranksy,Goop,0.52Ξ ($75),"Jan 07, 2020",0.52,75,2020-01-07
7807,Sold,0x5b098b,Sylveste…,0.50Ξ ($85),"May 09, 2019",0.5,85,2019-05-09
7807,Sold,0x19f233,0x5b098b,0.22Ξ ($53),"Jul 07, 2017",0.22,53,2017-07-07
7808,Sold,0x19ac60,prabhu.e…,"6Ξ ($10,247)","Feb 08, 2021",6,10247,2021-02-08
7810,Sold,Zieg,antunes_…,"5.60Ξ ($1,907)","Oct 06, 2020",5.6,1907,2020-10-06
7810,Sold,Slider92,Zieg,"5.50Ξ ($1,911)","Oct 03, 2020",5.5,1911,2020-10-03
7810,Sold,0x48db19,Slider92,1.10Ξ ($482),"Aug 31, 2020",1.1,482,2020-08-31
7811,Sold,lemondro…,0x661c12,"34Ξ ($58,077)","Feb 22, 2021",34,58077,2021-02-22
7811,Sold,0x988860,lemondro…,"6.50Ξ ($2,218)","Oct 07, 2020",6.5,2218,2020-10-07
7811,Sold,scalynel…,0x988860,"11.50Ξ ($4,001)","Sep 25, 2020",11.5,4001,2020-09-25
7811,Sold,Dude_Nak…,scalynel…,1.65Ξ ($373),"Feb 09, 2020",1.65,373,2020-02-09
7811,Sold,Hemba,Dude_Nak…,0.20Ξ ($83),"Apr 03, 2018",0.2,83,2018-04-03
7812,Sold,0x9224bb,0x0e6167,"15.95Ξ ($31,468)","Feb 21, 2021",15.95,31468,2021-02-21
7812,Sold,0xdc3689,0x9224bb,"2.99Ξ ($1,511)","Nov 20, 2020",2.99,1511,2020-11-20
7812,Sold,ChrisR,99Zed,1.99Ξ ($761),"Sep 18, 2020",1.99,761,2020-09-18
7812,Sold,0x1a96af,Pranksy,0.85Ξ ($179),"May 19, 2020",0.85,179,2020-05-19
7814,Sold,4042394,11844417,"50Ξ ($84,303)","Mar 23, 2021",50,84303,2021-03-23
7815,Sold,0x3dae9a,15925611,"27.99Ξ ($47,495)","Mar 23, 2021",27.99,47495,2021-03-23
7816,Sold,Punkofth…,nehmad.e…,"3.50Ξ ($1,258)","Sep 27, 2020",3.5,1258,2020-09-27
7819,Sold,renaissa…,1350walt…,"6.50Ξ ($2,308)","Sep 30, 2020",6.5,2308,2020-09-30
7819,Sold,BEST,renaissa…,"5Ξ ($1,819)","Sep 28, 2020",5,1819,2020-09-28
7819,Sold,Hemba,BEST,0.66Ξ ($203),"Jun 23, 2019",0.66,203,2019-06-23
7822,Sold,0x033ee7,charley,"6.85Ξ ($12,540)","Feb 13, 2021",6.85,12540,2021-02-13
7822,Sold,Lumberg,0x033ee7,"3.49Ξ ($1,207)","Sep 24, 2020",3.49,1207,2020-09-24
7822,Sold,0xbull,Lumberg,1.50Ξ ($310),"May 27, 2020",1.5,310,2020-05-27
7822,Sold,trislit,0xbull,1Ξ ($203),"May 22, 2020",1,203,2020-05-22
7822,Sold,0xbc081c,trislit,0.29Ξ ($48),"Apr 11, 2019",0.29,48,2019-04-11
7824,Sold,0xf28820,antunes_…,"5.10Ξ ($1,771)","Oct 03, 2020",5.1,1771,2020-10-03
7824,Sold,Slider92,0xf28820,"4.99Ξ ($1,690)","Oct 02, 2020",4.99,1690,2020-10-02
7824,Sold,Zieg,Slider92,"3.40Ξ ($1,202)","Sep 27, 2020",3.4,1202,2020-09-27
7824,Sold,ross_VRO…,Zieg,"3.07Ξ ($1,058)","Sep 25, 2020",3.07,1058,2020-09-25
7824,Sold,0x1a96af,ross_VRO…,1.12Ξ ($397),"Sep 09, 2020",1.12,397,2020-09-09
7825,Sold,0xd83946,0x_NFT,"6Ξ ($7,413)","Jan 22, 2021",6,7413,2021-01-22
7825,Sold,0x677b43,0xd83946,0.65Ξ ($97),"Feb 22, 2019",0.65,97,2019-02-22
7825,Sold,0x682c30,0x677b43,0.39Ξ ($74),"Jul 11, 2017",0.39,74,2017-07-11
7826,Sold,Pranksy,BlackKet…,0.50Ξ ($64),"Jan 01, 2020",0.5,64,2020-01-01
7826,Sold,0x00d7c9,Pranksy,0.25Ξ ($45),"Sep 02, 2019",0.25,45,2019-09-02
7827,Sold,CPyrc,0x045473,1.47Ξ ($540),"Sep 13, 2020",1.47,540,2020-09-13
7827,Sold,Pranksy,CPyrc,1.25Ξ ($457),"Sep 11, 2020",1.25,457,2020-09-11
7827,Sold,0xe45df5,Pranksy,0.90Ξ ($159),"Jan 18, 2020",0.9,159,2020-01-18
7828,Sold,0x799e6b,0xaea8e3,"58.50Ξ ($120,736)","Apr 08, 2021",58.5,120736,2021-04-08
7828,Sold,0xe369a8,0x799e6b,"35Ξ ($62,288)","Feb 16, 2021",35,62288,2021-02-16
7828,Sold,0x0a4eaf…,0xe369a8,"23Ξ ($40,962)","Feb 16, 2021",23,40962,2021-02-16
7828,Sold,0x682c30,0x0a4eaf…,0.39Ξ ($104),"Jul 06, 2017",0.39,104,2017-07-06
7830,Sold,0x5f18f9,0xbec69d,"25Ξ ($45,448)","Mar 12, 2021",25,45448,2021-03-12
7834,Sold,3699717,5642118,"4.59Ξ ($5,654)","Jan 16, 2021",4.59,5654,2021-01-16
7835,Sold,0xaae8c5,0x38a161,"19.49Ξ ($32,244)","Mar 07, 2021",19.49,32244,2021-03-07
7835,Sold,Pranksy,0xbe7516,"4.20Ξ ($5,327)","Jan 23, 2021",4.2,5327,2021-01-23
7835,Sold,0x2fdacd,0x5b331e,"4Ξ ($4,906)","Jan 14, 2021",4,4906,2021-01-14
7835,Sold,0xf5099e,0x2fdacd,0.30Ξ ($37),"Feb 16, 2019",0.3,37,2019-02-16
7835,Sold,0x02751f,0xa0a59c,0.20Ξ ($39),"Jul 30, 2017",0.2,39,2017-07-30
7836,Sold,SharkWha…,ddaavvee,"3.29Ξ ($1,148)","Sep 25, 2020",3.29,1148,2020-09-25
7836,Sold,ross_VRO…,SharkWha…,"2.99Ξ ($1,138)","Sep 20, 2020",2.99,1138,2020-09-20
7836,Sold,natealex,ross_VRO…,1.50Ξ ($560),"Sep 12, 2020",1.5,560,2020-09-12
7836,Sold,Pranksy,natealex,1.25Ξ ($460),"Sep 11, 2020",1.25,460,2020-09-11
7836,Sold,0x231707,Pranksy,1Ξ ($177),"Jan 18, 2020",1,177,2020-01-18
7837,Sold,7650826,8272970,"22.49Ξ ($39,906)","Mar 12, 2021",22.49,39906,2021-03-12
7837,Sold,13886183,7650826,"9.30Ξ ($16,767)","Feb 17, 2021",9.3,16767,2021-02-17
7837,Sold,3699717,13886183,"5.60Ξ ($10,135)","Feb 12, 2021",5.6,10135,2021-02-12
7842,Sold,22272,8350887,0.09Ξ ($42),"Nov 26, 2017",0.09,42,2017-11-26
7843,Sold,0x87e225,ButtonNo…,0.59Ξ ($110),"Apr 19, 2020",0.59,110,2020-04-19
7843,Sold,0x00d7c9,0x87e225,0.30Ξ ($63),"Aug 12, 2019",0.3,63,2019-08-12
7844,Sold,valko.et…,0xb1adce,"15Ξ ($25,714)","Feb 08, 2021",15,25714,2021-02-08
7844,Sold,0xcEd199…,valko.et…,0.17Ξ ($77),"Dec 05, 2017",0.17,77,2017-12-05
7844,Sold,0xfb077c,0xcEd199…,0.30Ξ ($65),"Jul 21, 2017",0.3,65,2017-07-21
7845,Sold,5734076,15042144,"35Ξ ($60,845)","Mar 12, 2021",35,60845,2021-03-12
7846,Sold,0xf1b658,7480481,"97Ξ ($153,826)","Feb 08, 2021",97,153826,2021-02-08
7846,Sold,0xca8fe4,5976862,"49.99Ξ ($58,723)","Jan 06, 2021",49.99,58723,2021-01-06
7847,Sold,1471195,6689278,"26.50Ξ ($47,307)","Mar 15, 2021",26.5,47307,2021-03-15
7848,Sold,16525921,11268359,"20Ξ ($41,435)","Apr 08, 2021",20,41435,2021-04-08
7848,Sold,13275108,9935372,"10Ξ ($18,370)","Feb 14, 2021",10,18370,2021-02-14
7851,Sold,0x0735b3,15693900,"39Ξ ($70,466)","Mar 10, 2021",39,70466,2021-03-10
7851,Sold,0xf138eb,472499,0.30Ξ ($208),"Dec 16, 2017",0.3,208,2017-12-16
7852,Sold,5858674,1278319,"23.20Ξ ($45,329)","Feb 21, 2021",23.2,45329,2021-02-21
7852,Sold,13275108,5858674,"11.50Ξ ($20,759)","Feb 13, 2021",11.5,20759,2021-02-13
7854,Sold,0xca8fe4,3387770,"39.50Ξ ($71,798)","Mar 18, 2021",39.5,71798,2021-03-18
7855,Sold,0xca8fe4,5949846,"23.99Ξ ($36,220)","Mar 02, 2021",23.99,36220,2021-03-02
7857,Sold,0xa1179f,0xf2565f,"7Ξ ($9,478)","Jan 30, 2021",7,9478,2021-01-30
7857,Sold,Hemba,0xa1179f,1.60Ξ ($383),"Jun 03, 2020",1.6,383,2020-06-03
7858,Sold,8533182,dan_,0.12Ξ ($44),"Apr 06, 2018",0.12,44,2018-04-06
7861,Sold,0x5b331e,0xff0bd4,"45Ξ ($71,622)","Feb 25, 2021",45,71622,2021-02-25
7861,Sold,j1mmy,0x5b331e,"21Ξ ($42,033)","Feb 20, 2021",21,42033,2021-02-20
7861,Sold,Pranksy,j1mmy,"17Ξ ($30,675)","Feb 14, 2021",17,30675,2021-02-14
7861,Sold,0xd1e910,Pranksy,"14Ξ ($25,671)","Feb 14, 2021",14,25671,2021-02-14
7861,Sold,GoWest23,0xd1e910,"8.50Ξ ($3,045)","Sep 29, 2020",8.5,3045,2020-09-29
7861,Sold,Pranksy,GoWest23,1Ξ ($161),"Jan 16, 2020",1,161,2020-01-16
7861,Sold,0x00d7c9,Pranksy,0.25Ξ ($45),"Sep 02, 2019",0.25,45,2019-09-02
7862,Sold,5331586,7435267,0.05Ξ ($14),"Jun 27, 2017",0.05,14,2017-06-27
7863,Sold,0x3ba9cd,Hex,"2.95Ξ ($1,047)","Sep 25, 2020",2.95,1047,2020-09-25
7863,Sold,Carlini8,0x3ba9cd,2.50Ξ ($869),"Sep 24, 2020",2.5,869,2020-09-24
7863,Sold,0x1d45f1,Carlini8,1.75Ξ ($659),"Sep 14, 2020",1.75,659,2020-09-14
7863,Sold,BitcoinG…,0x1d45f1,1.60Ξ ($591),"Sep 11, 2020",1.6,591,2020-09-11
7863,Sold,Hemba,BitcoinG…,1.60Ξ ($378),"Jun 13, 2020",1.6,378,2020-06-13
7864,Sold,0xc04f55,0xe4446d,"26.95Ξ ($50,909)","Mar 13, 2021",26.95,50909,2021-03-13
7864,Sold,0x00d7c9,Dude_Nak…,0.25Ξ ($44),"Sep 27, 2019",0.25,44,2019-09-27
7866,Sold,733437,7823584,0.15Ξ ($44),"Jun 29, 2017",0.15,44,2017-06-29
7868,Sold,0x5b098b,393680,2Ξ ($328),"Jan 14, 2020",2,328,2020-01-14
7868,Sold,0x0bf913,5966219,0.38Ξ ($72),"Jul 11, 2017",0.38,72,2017-07-11
7868,Sold,0x00d7c9,784659,0.22Ξ ($44),"Jul 10, 2017",0.22,44,2017-07-10
7869,Sold,Davicio,0x4954b7,3.99Ξ ($880),"May 29, 2020",3.99,880,2020-05-29
7869,Sold,0x6e5b3f,Davicio,1.90Ξ ($250),"Mar 14, 2020",1.9,250,2020-03-14
7870,Sold,10288454,8704847,"21Ξ ($38,069)","Mar 11, 2021",21,38069,2021-03-11
7870,Sold,1606731,10288454,"16Ξ ($32,092)","Feb 20, 2021",16,32092,2021-02-20
7870,Sold,13275108,1606731,"8.50Ξ ($15,483)","Feb 14, 2021",8.5,15483,2021-02-14
7872,Sold,0xe45df5,2390212,0.59Ξ ($128),"Jul 21, 2017",0.59,128,2017-07-21
7875,Sold,2233870,13053754,1.75Ξ ($266),"Jan 07, 2019",1.75,266,2019-01-07
7876,Sold,0xaea8e3,0xc9c0ee,"21.99Ξ ($47,079)","Apr 11, 2021",21.99,47079,2021-04-11
7876,Sold,0xa06bd7,0xaea8e3,"17.41Ξ ($35,987)","Apr 08, 2021",17.41,35987,2021-04-08
7876,Sold,EliteCat…,0xa06bd7,"19.49Ξ ($31,531)","Mar 26, 2021",19.49,31531,2021-03-26
7876,Sold,Pranksy,GoWest23,0.50Ξ ($67),"Jan 04, 2020",0.5,67,2020-01-04
7876,Sold,0x00d7c9,Pranksy,0.25Ξ ($45),"Sep 02, 2019",0.25,45,2019-09-02
7876,Sold,0x682c30,0x00d7c9,0.39Ξ ($96),"Jul 08, 2017",0.39,96,2017-07-08
7880,Sold,55241,7823584,0.05Ξ ($28),"May 30, 2018",0.05,28,2018-05-30
7884,Sold,0x00d7c9,sov,0.10Ξ ($29),"Oct 28, 2017",0.1,29,2017-10-28
7885,Sold,0x561786,0x84d34f,"19Ξ ($34,443)","Mar 11, 2021",19,34443,2021-03-11
7885,Sold,0x1a96af,azkaban,0.52Ξ ($101),"Apr 28, 2020",0.52,101,2020-04-28
7888,Sold,0xca8fe4,TokenAng…,"18Ξ ($18,584)","Jan 05, 2021",18,18584,2021-01-05
7889,Sold,Cryptokk…,TokenAng…,"35Ξ ($65,661)","Feb 22, 2021",35,65661,2021-02-22
7889,Sold,Hemba,Cryptokk…,1.80Ξ ($397),"Feb 11, 2020",1.8,397,2020-02-11
7892,Sold,0x47d4f2,6085246,"43.50Ξ ($68,968)","Mar 06, 2021",43.5,68968,2021-03-06
7894,Sold,0xb4bb41,5145769,"21.55Ξ ($36,910)","Mar 24, 2021",21.55,36910,2021-03-24
7894,Sold,0x47d4f2,11844417,"21.40Ξ ($34,717)","Feb 25, 2021",21.4,34717,2021-02-25
7896,Sold,0x655d17,2801781,"50Ξ ($91,450)","Mar 18, 2021",50,91450,2021-03-18
7896,Sold,0x1d337f,6642967,"25.55Ξ ($45,952)","Mar 11, 2021",25.55,45952,2021-03-11
7896,Sold,0xdae48d,11626205,"8Ξ ($10,640)","Feb 01, 2021",8,10640,2021-02-01
7898,Sold,jmg,DANNY,"18.99Ξ ($6,800)","Sep 06, 2020",18.99,6800,2020-09-06
7898,Sold,shilpixe…,jmg,4Ξ ($749),"Apr 25, 2020",4,749,2020-04-25
7899,Sold,5734076,5167784,"27Ξ ($40,068)","Mar 02, 2021",27,40068,2021-03-02
7900,Sold,0x58164b,Kenney,0.08Ξ ($60),"May 07, 2018",0.08,60,2018-05-07
7903,Sold,0x682c30,CPyrc,2.99Ξ ($615),"May 27, 2020",2.99,615,2020-05-27
7906,Sold,0x5f5df4,0xfaa550,"20.50Ξ ($44,178)","Apr 12, 2021",20.5,44178,2021-04-12
7907,Sold,14215174,9876623,0.20Ξ ($57),"Sep 23, 2017",0.2,57,2017-09-23
7907,Sold,6827056,14215174,0.50Ξ ($103),"Jul 13, 2017",0.5,103,2017-07-13
7908,Sold,13401139,1799750,0.66Ξ ($117),"Jan 18, 2020",0.66,117,2020-01-18
7909,Sold,renaissa…,point-gr…,"19.99Ξ ($41,320)","Apr 08, 2021",19.99,41320,2021-04-08
7909,Sold,0xca8fe4,renaissa…,"16Ξ ($32,993)","Apr 05, 2021",16,32993,2021-04-05
7910,Sold,Kataster…,0x54d7f9,"49Ξ ($87,025)","Feb 22, 2021",49,87025,2021-02-22
7910,Sold,Dude_Nak…,Kataster…,0.95Ξ ($213),"Feb 08, 2020",0.95,213,2020-02-08
7910,Sold,0x8234be,Dude_Nak…,0.15Ξ ($82),"Mar 23, 2018",0.15,82,2018-03-23
7911,Sold,0x4aa6a3,MT1000,"3.20Ξ ($1,880)","Nov 23, 2020",3.2,1880,2020-11-23
7911,Sold,Galactic…,0x4aa6a3,"5.30Ξ ($2,012)","Oct 13, 2020",5.3,2012,2020-10-13
7911,Sold,Slider92,Galactic…,"4.30Ξ ($1,609)","Oct 10, 2020",4.3,1609,2020-10-10
7911,Sold,antunes_…,Slider92,"5.60Ξ ($1,949)","Oct 04, 2020",5.6,1949,2020-10-04
7911,Sold,Zieg,antunes_…,"5.50Ξ ($1,908)","Oct 03, 2020",5.5,1908,2020-10-03
7911,Sold,ross_VRO…,Zieg,"5.70Ξ ($2,023)","Sep 30, 2020",5.7,2023,2020-09-30
7911,Sold,0xfff1b1,ross_VRO…,1Ξ ($202),"May 22, 2020",1,202,2020-05-22
7911,Sold,0x005700,0xfff1b1,0.13Ξ ($39),"Sep 04, 2017",0.13,39,2017-09-04
7912,Sold,5966219,957165,"23.20Ξ ($49,670)","Apr 11, 2021",23.2,49670,2021-04-11
7915,Sold,0xca8fe4,144231,"19.50Ξ ($33,207)","Mar 29, 2021",19.5,33207,2021-03-29
7916,Sold,Hemba,Tschuuul…,0.47Ξ ($63),"Mar 02, 2019",0.47,63,2019-03-02
7917,Sold,0x00d7c9,4031086,0.20Ξ ($143),"Dec 28, 2017",0.2,143,2017-12-28
7918,Sold,55241,7823584,0.11Ξ ($32),"Oct 26, 2017",0.11,32,2017-10-26
7922,Sold,Pranksy,0xef9725,"18Ξ ($30,039)","Mar 28, 2021",18,30039,2021-03-28
7922,Sold,0x5b331e,Pranksy,"9.50Ξ ($15,509)","Feb 08, 2021",9.5,15509,2021-02-08
7922,Sold,scalynel…,0x5b331e,"7.50Ξ ($11,588)","Feb 07, 2021",7.5,11588,2021-02-07
7922,Sold,0x4960c4…,scalynel…,2.35Ξ ($477),"May 26, 2020",2.35,477,2020-05-26
7922,Sold,0x00d7c9,0x4960c4…,0.10Ξ ($29),"Oct 28, 2017",0.1,29,2017-10-28
7923,Sold,Party,0x2b9324,"15Ξ ($19,967)","Jan 19, 2021",15,19967,2021-01-19
7923,Sold,0xde0193,Party,"8Ξ ($5,862)","Dec 31, 2020",8,5862,2020-12-31
7924,Sold,0x231707,artofrjm,1.45Ξ ($292),"May 26, 2020",1.45,292,2020-05-26
7925,Sold,Michel_M…,0x9e1e40,0.08Ξ ($82),"Feb 01, 2018",0.08,82,2018-02-01
7925,Sold,Cyborg,Michel_M…,0.10Ξ ($94),"Jan 04, 2018",0.1,94,2018-01-04
7926,Sold,Hemba,0x717403,0.05Ξ ($13),"Jun 26, 2017",0.05,13,2017-06-26
7927,Sold,0x00d7c9,Pixls,0.45Ξ ($79),"Apr 07, 2019",0.45,79,2019-04-07
7928,Sold,Hemba,sov,0.20Ξ ($95),"Nov 27, 2017",0.2,95,2017-11-27
7929,Sold,2pac,district…,"8Ξ ($5,153)","Dec 27, 2020",8,5153,2020-12-27
7929,Sold,EliteCat…,2pac,"7.12Ξ ($4,572)","Dec 18, 2020",7.12,4572,2020-12-18
7929,Sold,Pranksy,GoWest23,3.99Ξ ($818),"May 24, 2020",3.99,818,2020-05-24
7929,Sold,Hemba,Pranksy,1.80Ξ ($363),"May 22, 2020",1.8,363,2020-05-22
7930,Sold,Pranksy,0x0452b1,1.29Ξ ($292),"Jul 04, 2020",1.29,292,2020-07-04
7930,Sold,0xe45df5,Pranksy,0.69Ξ ($93),"Jan 04, 2020",0.69,93,2020-01-04
7931,Sold,ChrisR,0xfb60bb,0.89Ξ ($300),"Jul 30, 2020",0.89,300,2020-07-30
7931,Sold,0xb6be4d,Pranksy,0.90Ξ ($182),"May 22, 2020",0.9,182,2020-05-22
7933,Sold,jmg,Coldie,0.65Ξ ($171),"Jun 14, 2019",0.65,171,2019-06-14
7933,Sold,0x00d7c9,jmg,0.50Ξ ($82),"Apr 13, 2019",0.5,82,2019-04-13
7934,Sold,charley,0x3ee505,2.50Ξ ($865),"Sep 24, 2020",2.5,865,2020-09-24
7934,Sold,0x2bcbbd,charley,0.50Ξ ($75),"Dec 02, 2019",0.5,75,2019-12-02
7935,Sold,0xf138eb,16745492,0.16Ξ ($40),"Jun 26, 2017",0.16,40,2017-06-26
7938,Sold,0x0713a6,snax,"3.50Ξ ($1,281)","Sep 14, 2020",3.5,1281,2020-09-14
7938,Sold,GtC,0x0713a6,0.80Ξ ($172),"May 08, 2020",0.8,172,2020-05-08
7938,Sold,0x00d7c9,GtC,0.25Ξ ($45),"Sep 03, 2019",0.25,45,2019-09-03
7938,Sold,0x682c30,0x00d7c9,0.39Ξ ($96),"Jul 08, 2017",0.39,96,2017-07-08
7939,Sold,13419056,0x7c00c9…,0.25Ξ ($23),"Dec 07, 2018",0.25,23,2018-12-07
7940,Sold,Cyborg,Kenney,0.20Ξ ($234),"Jan 29, 2018",0.2,234,2018-01-29
7940,Sold,0x00d7c9,Cyborg,0.10Ξ ($30),"Nov 04, 2017",0.1,30,2017-11-04
7945,Sold,0x67e095,0xef784c,"65Ξ ($118,511)","Mar 09, 2021",65,118511,2021-03-09
7945,Sold,kingskin…,0x67e095,"17Ξ ($27,673)","Feb 03, 2021",17,27673,2021-02-03
7945,Sold,trislit,KingChad,"8Ξ ($2,972)","Sep 20, 2020",8,2972,2020-09-20
7945,Sold,0x8234be,Zieg,0.30Ξ ($50),"Apr 05, 2019",0.3,50,2019-04-05
7946,Sold,hellogar…,0x23b50b,"55Ξ ($99,888)","Mar 12, 2021",55,99888,2021-03-12
7946,Sold,0xf1b658,hellogar…,"32Ξ ($57,876)","Feb 14, 2021",32,57876,2021-02-14
7946,Sold,0xca8fe4,0xf1b658,"17Ξ ($29,572)","Feb 10, 2021",17,29572,2021-02-10
7947,Sold,Hemba,0x717403,0.05Ξ ($13),"Jun 26, 2017",0.05,13,2017-06-26
7949,Sold,0x02751f,juggerna…,0.20Ξ ($39),"Jul 30, 2017",0.2,39,2017-07-30
7953,Sold,Hemba,0x0601d0,3Ξ ($600),"May 26, 2020",3,600,2020-05-26
7954,Sold,3819824,387582,2Ξ ($472),"Jul 19, 2020",2,472,2020-07-19
7954,Sold,2777639,3819824,1.60Ξ ($329),"May 27, 2020",1.6,329,2020-05-27
7954,Sold,11763825,2777639,1Ξ ($200),"May 21, 2020",1,200,2020-05-21
7955,Sold,0xd3e2e7,0xccbe99,"9.60Ξ ($16,960)","Feb 16, 2021",9.6,16960,2021-02-16
7955,Sold,0x39bdec,0xd3e2e7,"5.75Ξ ($9,857)","Feb 08, 2021",5.75,9857,2021-02-08
7955,Sold,0x033ee7,0x39bdec,"4.73Ξ ($6,042)","Jan 27, 2021",4.73,6042,2021-01-27
7955,Sold,0xe4c479,0x033ee7,"2.90Ξ ($1,031)","Sep 26, 2020",2.9,1031,2020-09-26
7955,Sold,Hemba,0xe4c479,2.50Ξ ($865),"Sep 24, 2020",2.5,865,2020-09-24
7957,Sold,jmg,Tschuuul…,0.35Ξ ($41),"Jan 26, 2019",0.35,41,2019-01-26
7957,Sold,0xbc081c,0x00bd3a,0.35Ξ ($68),"Jul 19, 2017",0.35,68,2017-07-19
7958,Sold,0xca8fe4,0x5bb6e7,"10Ξ ($13,081)","Jan 27, 2021",10,13081,2021-01-27
7959,Sold,14548427,4330141,"29.99Ξ ($54,931)","Mar 18, 2021",29.99,54931,2021-03-18
7959,Sold,12196282,14548427,"12.50Ξ ($22,925)","Feb 17, 2021",12.5,22925,2021-02-17
7960,Sold,0x9cfd46,fazebank…,"28Ξ ($50,877)","Mar 18, 2021",28,50877,2021-03-18
7960,Sold,0xa73edd,0x9cfd46,"18Ξ ($36,103)","Feb 20, 2021",18,36103,2021-02-20
7960,Sold,Hemba,0xa73edd,0.20Ξ ($76),"Apr 04, 2018",0.2,76,2018-04-04
7961,Sold,5331586,ryanduff…,0.15Ξ ($60),"Apr 08, 2018",0.15,60,2018-04-08
7962,Sold,0xf4239e,gaus,"3.75Ξ ($1,337)","Sep 28, 2020",3.75,1337,2020-09-28
7962,Sold,0xe4c479,0xf4239e,"3.50Ξ ($1,210)","Sep 24, 2020",3.5,1210,2020-09-24
7962,Sold,Hemba,0xe4c479,"3.25Ξ ($1,236)","Sep 20, 2020",3.25,1236,2020-09-20
7963,Sold,0xe754d1,gaus,"2.95Ξ ($1,043)","Sep 26, 2020",2.95,1043,2020-09-26
7963,Sold,Pranksy,0xe754d1,2.89Ξ ($994),"Sep 25, 2020",2.89,994,2020-09-25
7963,Sold,Hemba,Pranksy,2.30Ξ ($796),"Sep 24, 2020",2.3,796,2020-09-24
7964,Sold,0x033ee7,0x62e1d5,"14.99Ξ ($28,993)","Feb 21, 2021",14.99,28993,2021-02-21
7964,Sold,0xe4c479,0x033ee7,"2.90Ξ ($1,031)","Sep 26, 2020",2.9,1031,2020-09-26
7964,Sold,Hemba,0xe4c479,"3Ξ ($1,141)","Sep 20, 2020",3,1141,2020-09-20
7965,Sold,0x67edd0,0x7ed716,"23Ξ ($40,972)","Mar 21, 2021",23,40972,2021-03-21
7965,Sold,0xe96c3e,0x67edd0,"23Ξ ($41,359)","Mar 12, 2021",23,41359,2021-03-12
7965,Sold,Hemba,el,0.18Ξ ($53),"Sep 01, 2018",0.18,53,2018-09-01
7967,Sold,0x4b6942,davey.et…,0.99Ξ ($378),"Aug 12, 2020",0.99,378,2020-08-12
7967,Sold,Pranksy,0x4b6942,1.10Ξ ($251),"Jul 05, 2020",1.1,251,2020-07-05
7967,Sold,Hemba,Pranksy,1.50Ξ ($306),"May 26, 2020",1.5,306,2020-05-26
7968,Sold,Hemba,0x643c71,1.30Ξ ($448),"Jul 31, 2020",1.3,448,2020-07-31
7969,Sold,Pranksy,gaus,2.75Ξ ($949),"Sep 25, 2020",2.75,949,2020-09-25
7969,Sold,Hemba,Pranksy,2.30Ξ ($796),"Sep 24, 2020",2.3,796,2020-09-24
7971,Sold,0xb05b7d,7348023,"85Ξ ($108,916)","Jan 28, 2021",85,108916,2021-01-28
7972,Sold,0x3e17fa,0x1c558e,"16.50Ξ ($29,870)","Feb 16, 2021",16.5,29870,2021-02-16
7972,Sold,3van.eth,0x3e17fa,"9.99Ξ ($12,306)","Jan 24, 2021",9.99,12306,2021-01-24
7972,Sold,0x5b098b,evkort,"9.64Ξ ($3,474)","Sep 27, 2020",9.64,3474,2020-09-27
7973,Sold,6689278,3387770,"75Ξ ($132,886)","Mar 17, 2021",75,132886,2021-03-17
7975,Sold,16451452,0x7c00c9…,0.50Ξ ($47),"Dec 07, 2018",0.5,47,2018-12-07
7976,Sold,0x00d7c9,sov,0.10Ξ ($30),"Oct 27, 2017",0.1,30,2017-10-27
7977,Sold,3van.eth,0x29b1b2,"34.99Ξ ($48,670)","Feb 28, 2021",34.99,48670,2021-02-28
7977,Sold,0x231707,3van.eth,"39Ξ ($75,081)","Feb 18, 2021",39,75081,2021-02-18
7979,Sold,Pranksy,0x196a3d,2Ξ ($775),"Sep 13, 2020",2,775,2020-09-13
7979,Sold,Goop,alxo,0.26Ξ ($40),"Nov 23, 2019",0.26,40,2019-11-23
7979,Sold,juggerna…,Goop,0.25Ξ ($38),"Nov 23, 2019",0.25,38,2019-11-23
7981,Sold,509418,14348123,"10.49Ξ ($18,724)","Feb 15, 2021",10.49,18724,2021-02-15
7981,Sold,14233651,509418,"9.26Ξ ($16,330)","Feb 15, 2021",9.26,16330,2021-02-15
7982,Sold,5098227,6689278,0.50Ξ ($103),"Jul 13, 2017",0.5,103,2017-07-13
7982,Sold,6827056,5098227,0.25Ξ ($72),"Jun 27, 2017",0.25,72,2017-06-27
7983,Sold,5734076,16717009,"24.50Ξ ($37,663)","Mar 01, 2021",24.5,37663,2021-03-01
7986,Sold,11387433,7348023,"35Ξ ($64,208)","Feb 15, 2021",35,64208,2021-02-15
7986,Sold,11551919,11387433,"15Ξ ($20,736)","Jan 30, 2021",15,20736,2021-01-30
7988,Sold,0x694208,0x4fe5d0,"21.69Ξ ($41,583)","Feb 22, 2021",21.69,41583,2021-02-22
7988,Sold,0x033ee7,0x694208,"14.35Ξ ($27,735)","Feb 21, 2021",14.35,27735,2021-02-21
7988,Sold,0xe4c479,0x033ee7,"2.90Ξ ($1,031)","Sep 26, 2020",2.9,1031,2020-09-26
7988,Sold,Hemba,0xe4c479,"2.75Ξ ($1,046)","Sep 20, 2020",2.75,1046,2020-09-20
7989,Sold,aviexkak…,0xc5ee5b,"25Ξ ($39,683)","Feb 23, 2021",25,39683,2021-02-23
7989,Sold,0x0553de,0x568cf5,"5.49Ξ ($1,996)","Sep 28, 2020",5.49,1996,2020-09-28
7989,Sold,0x231707,0x0553de,"5Ξ ($1,824)","Sep 28, 2020",5,1824,2020-09-28
7990,Sold,0x00ce50,934967,"30Ξ ($57,330)","Feb 19, 2021",30,57330,2021-02-19
7992,Sold,0x577ebc,9155827,"9Ξ ($15,614)","Feb 09, 2021",9,15614,2021-02-09
7993,Sold,0x8ba3e2,Pixls,0.38Ξ ($53),"Mar 28, 2019",0.38,53,2019-03-28
7993,Sold,0x00d7c9,0x8ba3e2,0.10Ξ ($29),"Nov 01, 2017",0.1,29,2017-11-01
7995,Sold,Michel_M…,Korniej,2.40Ξ ($888),"Sep 20, 2020",2.4,888,2020-09-20
7995,Sold,Hemba,Michel_M…,1.90Ξ ($704),"Sep 20, 2020",1.9,704,2020-09-20
7996,Sold,0xf40b3d,0x6ec30f,"198Ξ ($351,393)","Mar 21, 2021",198,351393,2021-03-21
7996,Sold,Davicio,0xf40b3d,"36Ξ ($17,167)","Nov 19, 2020",36,17167,2020-11-19
7996,Sold,shilpixe…,Davicio,"10Ξ ($2,089)","May 05, 2020",10,2089,2020-05-05
7998,Sold,0x023ef7,0x8234c5,"23Ξ ($34,005)","Feb 27, 2021",23,34005,2021-02-27
7998,Sold,0x3f57b8,0x023ef7,"17.99Ξ ($26,377)","Feb 26, 2021",17.99,26377,2021-02-26
7998,Sold,Carlini8,gaus,2.50Ξ ($873),"Sep 25, 2020",2.5,873,2020-09-25
7998,Sold,0x231707,Carlini8,1.25Ξ ($251),"May 26, 2020",1.25,251,2020-05-26
7999,Sold,ark1,VonMises,1.75Ξ ($369),"May 08, 2020",1.75,369,2020-05-08
7999,Sold,antunes_…,TweetyPi…,1.30Ξ ($274),"May 01, 2020",1.3,274,2020-05-01
7999,Sold,shilpixe…,antunes_…,1Ξ ($193),"Apr 26, 2020",1,193,2020-04-26
8000,Sold,0xa9bfa9,sov,0.50Ξ ($112),"Aug 03, 2017",0.5,112,2017-08-03
8001,Sold,MadMax,0x75bb8e,"39.50Ξ ($60,178)","Feb 23, 2021",39.5,60178,2021-02-23
8001,Sold,EliteCat…,MadMax,"32Ξ ($54,235)","Feb 23, 2021",32,54235,2021-02-23
8001,Sold,0x682c30,GoWest23,0.49Ξ ($85),"May 06, 2019",0.49,85,2019-05-06
8002,Sold,55241,10361245,0.05Ξ ($30),"Jun 08, 2018",0.05,30,2018-06-08
8004,Sold,ChrisR,metapurs…,0.95Ξ ($354),"Sep 10, 2020",0.95,354,2020-09-10
8004,Sold,0xb6be4d,Pranksy,0.90Ξ ($190),"May 19, 2020",0.9,190,2020-05-19
8006,Sold,6666831,16280152,"47Ξ ($73,811)","Mar 03, 2021",47,73811,2021-03-03
8006,Sold,13401139,6666831,"18.89Ξ ($34,583)","Feb 14, 2021",18.89,34583,2021-02-14
8009,Sold,0x5b098b,0x1f8add,3.17Ξ ($641),"May 14, 2020",3.17,641,2020-05-14
8009,Sold,0x00d7c9,0x5b098b,0.31Ξ ($64),"Jul 10, 2017",0.31,64,2017-07-10
8010,Sold,0xcc7c33,beautifu…,"155Ξ ($329,037)","Apr 10, 2021",155,329037,2021-04-10
8011,Sold,0x033ee7,0x67c443,"12.99Ξ ($25,301)","Feb 19, 2021",12.99,25301,2021-02-19
8011,Sold,0xe4c479,0x033ee7,"2.90Ξ ($1,031)","Sep 26, 2020",2.9,1031,2020-09-26
8011,Sold,Hemba,0xe4c479,"2.75Ξ ($1,046)","Sep 20, 2020",2.75,1046,2020-09-20
8012,Sold,0x83f8ac,simontay…,"6.50Ξ ($2,340)","Oct 09, 2020",6.5,2340,2020-10-09
8012,Sold,GoWest23,0x83f8ac,"4.50Ξ ($1,599)","Sep 26, 2020",4.5,1599,2020-09-26
8012,Sold,0xcc7c33,GoWest23,0.49Ξ ($85),"May 06, 2019",0.49,85,2019-05-06
8013,Sold,5734076,10274288,"26Ξ ($37,738)","Mar 01, 2021",26,37738,2021-03-01
8014,Sold,13275108,4674918,"9.80Ξ ($17,720)","Feb 14, 2021",9.8,17720,2021-02-14
8015,Sold,2340107,11421942,"32.50Ξ ($67,866)","Apr 09, 2021",32.5,67866,2021-04-09
8015,Sold,8429086,2340107,"25.50Ξ ($46,234)","Mar 12, 2021",25.5,46234,2021-03-12
8015,Sold,13275108,985197,"8.30Ξ ($14,980)","Feb 13, 2021",8.3,14980,2021-02-13
8018,Sold,16740588,9059630,"29Ξ ($59,944)","Apr 08, 2021",29,59944,2021-04-08
8018,Sold,13275108,16740588,"21Ξ ($35,637)","Mar 27, 2021",21,35637,2021-03-27
8019,Sold,Hemba,0xf4a775,0.10Ξ ($47),"Dec 04, 2017",0.1,47,2017-12-04
8020,Sold,0x287b15,211855,"25.85Ξ ($47,521)","Mar 30, 2021",25.85,47521,2021-03-30
8020,Sold,0xc2ac3c,2652949,0.23Ξ ($236),"Jan 17, 2018",0.23,236,2018-01-17
8020,Sold,0x8234be,11607402,0.08Ξ ($24),"Sep 30, 2017",0.08,24,2017-09-30
8021,Sold,2pac,0x68a7ac,"4.92Ξ ($3,194)","Dec 27, 2020",4.92,3194,2020-12-27
8021,Sold,0x4960c4…,2pac,"4.92Ξ ($3,190)","Dec 18, 2020",4.92,3190,2020-12-18
8021,Sold,0x8234be,0x4960c4…,0.10Ξ ($38),"Apr 02, 2018",0.1,38,2018-04-02
8022,Sold,55241,rssi.eth,0.10Ξ ($46),"Dec 03, 2017",0.1,46,2017-12-03
8027,Sold,15808747,16745492,0.24Ξ ($68),"Jun 27, 2017",0.24,68,2017-06-27
8028,Sold,0x7489d0,3603416,"10Ξ ($18,194)","Feb 14, 2021",10,18194,2021-02-14
8028,Sold,0x682c30,7637456,0.70Ξ ($115),"Apr 13, 2019",0.7,115,2019-04-13
8029,Sold,0xe4c479,0x_NFT,"3.50Ξ ($1,206)","Sep 25, 2020",3.5,1206,2020-09-25
8029,Sold,Hemba,0xe4c479,"3.25Ξ ($1,236)","Sep 20, 2020",3.25,1236,2020-09-20
8031,Sold,NeonNFT,0x25dd15,"3.44Ξ ($1,236)","Sep 28, 2020",3.44,1236,2020-09-28
8031,Sold,Pranksy,NeonNFT,"2.99Ξ ($1,055)","Sep 27, 2020",2.99,1055,2020-09-27
8031,Sold,0x9ce03d,Pranksy,2.30Ξ ($796),"Sep 24, 2020",2.3,796,2020-09-24
8031,Sold,Pranksy,0x9ce03d,2.19Ξ ($761),"Sep 24, 2020",2.19,761,2020-09-24
8031,Sold,Hemba,Pranksy,1.80Ξ ($613),"Sep 22, 2020",1.8,613,2020-09-22
8032,Sold,55241,5828999,0.10Ξ ($136),"Jan 14, 2018",0.1,136,2018-01-14
8033,Sold,0x8ee483,0xb166dd,"54Ξ ($96,103)","Mar 18, 2021",54,96103,2021-03-18
8033,Sold,0x1d337f,0x8ee483,"45Ξ ($79,271)","Mar 12, 2021",45,79271,2021-03-12
8033,Sold,0x83fe78,0xb166dd,"25Ξ ($47,909)","Feb 18, 2021",25,47909,2021-02-18
8033,Sold,0x00d7c9,CyrusOld,0.12Ξ ($68),"May 27, 2018",0.12,68,2018-05-27
8035,Sold,0x9ff4ea,mbeck.et…,"60Ξ ($124,891)","Apr 09, 2021",60,124891,2021-04-09
8035,Sold,sighduck…,0x9ff4ea,"43Ξ ($88,057)","Apr 08, 2021",43,88057,2021-04-08
8035,Sold,0x0b88fd,sighduck…,"51.31Ξ ($92,309)","Mar 21, 2021",51.31,92309,2021-03-21
8035,Sold,0x231707,0x6611fe,0.23Ξ ($196),"Feb 10, 2018",0.23,196,2018-02-10
8036,Sold,5966219,zonted,2.50Ξ ($925),"Sep 12, 2020",2.5,925,2020-09-12
8036,Sold,55241,0x5b098b,0.27Ξ ($56),"Jul 10, 2017",0.27,56,2017-07-10
8037,Sold,15808747,13156629,0.10Ξ ($28),"Jun 25, 2017",0.1,28,2017-06-25
8038,Sold,3387770,3548383,"41Ξ ($79,559)","Mar 13, 2021",41,79559,2021-03-13
8038,Sold,5734076,3387770,"28Ξ ($53,833)","Mar 13, 2021",28,53833,2021-03-13
8040,Sold,Hemba,0x5462de,0.15Ξ ($17),"Nov 27, 2018",0.15,17,2018-11-27
8043,Sold,13275108,5642118,"5.50Ξ ($6,735)","Jan 09, 2021",5.5,6735,2021-01-09
8045,Sold,0xca8fe4,14240741,"30Ξ ($51,272)","Mar 27, 2021",30,51272,2021-03-27
8046,Sold,VonMises,0xedb7f3,"5Ξ ($6,709)","Jan 10, 2021",5,6709,2021-01-10
8046,Sold,Alex3422,VonMises,0.90Ξ ($192),"May 09, 2020",0.9,192,2020-05-09
8046,Sold,GtC,Alex3422,0.55Ξ ($84),"Jan 14, 2020",0.55,84,2020-01-14
8046,Sold,0x00d7c9,GtC,0.25Ξ ($45),"Sep 03, 2019",0.25,45,2019-09-03
8048,Sold,0x13816f,0x32dd07,"14Ξ ($26,010)","Feb 18, 2021",14,26010,2021-02-18
8048,Sold,NeonNFT,0x13816f,2.65Ξ ($918),"Sep 25, 2020",2.65,918,2020-09-25
8048,Sold,Hemba,NeonNFT,2.30Ξ ($796),"Sep 24, 2020",2.3,796,2020-09-24
8049,Sold,0xce3ecc,0x6611fe,"28Ξ ($49,985)","Mar 15, 2021",28,49985,2021-03-15
8049,Sold,0x927635,gaus,"3.60Ξ ($1,288)","Sep 28, 2020",3.6,1288,2020-09-28
8049,Sold,MrNFT,0x927635,"2.99Ξ ($1,028)","Sep 25, 2020",2.99,1028,2020-09-25
8049,Sold,0xe7be0f,MrNFT,2.70Ξ ($931),"Sep 25, 2020",2.7,931,2020-09-25
8049,Sold,0x0eee8c,0xe7be0f,2.50Ξ ($865),"Sep 24, 2020",2.5,865,2020-09-24
8049,Sold,Pranksy,0x0eee8c,2.19Ξ ($706),"Sep 23, 2020",2.19,706,2020-09-23
8049,Sold,Hemba,Pranksy,1.80Ξ ($613),"Sep 22, 2020",1.8,613,2020-09-22
8050,Sold,Hemba,0xf40b3d,2.50Ξ ($834),"Sep 24, 2020",2.5,834,2020-09-24
8051,Sold,0x13816f,0x0e6167,"17.88Ξ ($35,276)","Feb 21, 2021",17.88,35276,2021-02-21
8051,Sold,undefine…,0x13816f,"4Ξ ($1,433)","Sep 28, 2020",4,1433,2020-09-28
8051,Sold,Loopify,undefine…,1.90Ξ ($726),"Sep 19, 2020",1.9,726,2020-09-19
8051,Sold,Pranksy,Loopify,1.90Ξ ($716),"Sep 14, 2020",1.9,716,2020-09-14
8051,Sold,Goop,alxo,0.26Ξ ($40),"Nov 23, 2019",0.26,40,2019-11-23
8051,Sold,juggerna…,Goop,0.25Ξ ($38),"Nov 23, 2019",0.25,38,2019-11-23
8053,Sold,0x577ebc,TokenAng…,"54.99Ξ ($120,075)","Apr 12, 2021",54.99,120075,2021-04-12
8054,Sold,0x0553de,iPhone,"5.98Ξ ($2,129)","Sep 29, 2020",5.98,2129,2020-09-29
8054,Sold,NFTinTin,j1mmy,1.09Ξ ($380),"Sep 09, 2020",1.09,380,2020-09-09
8054,Sold,0x1a96af,NFTinTin,0.53Ξ ($91),"Apr 17, 2020",0.53,91,2020-04-17
8057,Sold,0x62bdc6,6329904,"39.99Ξ ($75,124)","Mar 15, 2021",39.99,75124,2021-03-15
8057,Sold,0xca8fe4,6471110,"34.99Ξ ($65,427)","Mar 15, 2021",34.99,65427,2021-03-15
8058,Sold,0xca8fe4,5786847,"18.50Ξ ($31,232)","Mar 28, 2021",18.5,31232,2021-03-28
8059,Sold,oref,0x93f27b,2.49Ξ ($958),"Sep 19, 2020",2.49,958,2020-09-19
8059,Sold,Hemba,oref,0.90Ξ ($353),"Aug 23, 2020",0.9,353,2020-08-23
8060,Sold,droxey,supahmar…,0.30Ξ ($62),"Oct 20, 2018",0.3,62,2018-10-20
8061,Sold,0x023ef7,0x1dabc3,"24.98Ξ ($53,530)","Apr 11, 2021",24.98,53530,2021-04-11
8061,Sold,0x0503ed,0x023ef7,"24Ξ ($44,356)","Mar 20, 2021",24,44356,2021-03-20
8061,Sold,Kataster…,0x0503ed,"23Ξ ($40,948)","Mar 17, 2021",23,40948,2021-03-17
8061,Sold,TweetyPi…,Kataster…,0.78Ξ ($128),"Jan 16, 2020",0.78,128,2020-01-16
8061,Sold,ark1,TweetyPi…,0.40Ξ ($49),"Dec 17, 2019",0.4,49,2019-12-17
8061,Sold,0x00d7c9,ark1,0.25Ξ ($47),"Sep 15, 2019",0.25,47,2019-09-15
8062,Sold,0xae4d83,0x6130d3,"13.49Ξ ($25,779)","Feb 19, 2021",13.49,25779,2021-02-19
8062,Sold,TokenAng…,0xae4d83,"8.50Ξ ($15,378)","Feb 14, 2021",8.5,15378,2021-02-14
8062,Sold,ChrisR,TokenAng…,1.95Ξ ($715),"Sep 15, 2020",1.95,715,2020-09-15
8062,Sold,0xb6be4d,Pranksy,0.90Ξ ($182),"May 22, 2020",0.9,182,2020-05-22
8064,Sold,0xfb077c,gr8wxl,0.80Ξ ($180),"Aug 03, 2017",0.8,180,2017-08-03
8065,Sold,0x8234be,Cryptokk…,0.70Ξ ($111),"Apr 04, 2019",0.7,111,2019-04-04
8067,Sold,0x5fd36a,vetinary…,"20.50Ξ ($43,581)","Apr 12, 2021",20.5,43581,2021-04-12
8067,Sold,0x5aaeb9,gaus,2.65Ξ ($925),"Sep 25, 2020",2.65,925,2020-09-25
8067,Sold,0xe754d1,0x5aaeb9,2.40Ξ ($831),"Sep 24, 2020",2.4,831,2020-09-24
8067,Sold,Pranksy,0xe754d1,2.19Ξ ($752),"Sep 24, 2020",2.19,752,2020-09-24
8067,Sold,Hemba,Pranksy,1.80Ξ ($613),"Sep 22, 2020",1.8,613,2020-09-22
8069,Sold,0x5fd36a,0xd5b351,"25.45Ξ ($39,498)","Feb 23, 2021",25.45,39498,2021-02-23
8069,Sold,0x3128f5,0x5fd36a,"22.50Ξ ($42,896)","Feb 21, 2021",22.5,42896,2021-02-21
8069,Sold,juggerna…,ArtBlock…,0.30Ξ ($54),"Oct 26, 2019",0.3,54,2019-10-26
8070,Sold,6689278,12800693,0.59Ξ ($51),"Dec 13, 2018",0.59,51,2018-12-13
8071,Sold,ark1,ArtBlock…,0.37Ξ ($45),"Dec 17, 2019",0.37,45,2019-12-17
8071,Sold,0x00d7c9,ark1,0.25Ξ ($47),"Sep 15, 2019",0.25,47,2019-09-15
8072,Sold,55241,7435267,0.05Ξ ($29),"May 31, 2018",0.05,29,2018-05-31
8075,Sold,Pranksy,NFTinTin,1.11Ξ ($260),"Jun 22, 2020",1.11,260,2020-06-22
8075,Sold,0xb6be4d,Pranksy,0.90Ξ ($182),"May 22, 2020",0.9,182,2020-05-22
8078,Sold,0x6f4a2d,wookie.e…,"22.25Ξ ($31,848)","Mar 01, 2021",22.25,31848,2021-03-01
8080,Sold,7293485,13129492,"25Ξ ($43,889)","Feb 22, 2021",25,43889,2021-02-22
8081,Sold,monopoly…,0x8f6b1e,"11Ξ ($19,835)","Feb 16, 2021",11,19835,2021-02-16
8081,Sold,0x6f4a2d,monopoly…,"6.70Ξ ($12,249)","Feb 12, 2021",6.7,12249,2021-02-12
8082,Sold,monopoly…,tentoedt…,"40Ξ ($68,001)","Mar 23, 2021",40,68001,2021-03-23
8082,Sold,0xdbc416,monopoly…,"19.50Ξ ($35,509)","Feb 16, 2021",19.5,35509,2021-02-16
8082,Sold,0x07c5ea,0xdbc416,"12.75Ξ ($22,485)","Feb 15, 2021",12.75,22485,2021-02-15
8082,Sold,0xd93033,0x07c5ea,"10Ξ ($17,518)","Feb 15, 2021",10,17518,2021-02-15
8085,Sold,12586027,16745492,0.43Ξ ($116),"Jul 04, 2017",0.43,116,2017-07-04
8087,Sold,7595912,9155827,"25Ξ ($42,132)","Feb 23, 2021",25,42132,2021-02-23
8087,Sold,11004839,7595912,"13.99Ξ ($27,803)","Feb 20, 2021",13.99,27803,2021-02-20
8087,Sold,52816,11004839,"11Ξ ($21,635)","Feb 19, 2021",11,21635,2021-02-19
8091,Sold,moderats,0xaae8c5,"4.20Ξ ($4,456)","Jan 05, 2021",4.2,4456,2021-01-05
8091,Sold,natealex,moderats,1.90Ξ ($709),"Sep 14, 2020",1.9,709,2020-09-14
8091,Sold,Pranksy,natealex,1.25Ξ ($458),"Sep 11, 2020",1.25,458,2020-09-11
8091,Sold,0x87e225,Pranksy,0.59Ξ ($80),"Jan 04, 2020",0.59,80,2020-01-04
8091,Sold,0x00d7c9,0x87e225,0.30Ξ ($69),"Jul 20, 2019",0.3,69,2019-07-20
8092,Sold,ark1,0x561b01,0.39Ξ ($58),"Dec 05, 2019",0.39,58,2019-12-05
8092,Sold,0x00d7c9,ark1,0.25Ξ ($47),"Sep 15, 2019",0.25,47,2019-09-15
8093,Sold,5331586,45688,0.32Ξ ($86),"Jul 04, 2017",0.32,86,2017-07-04
8095,Sold,0xe98492,0xf1e1c7,"24.94Ξ ($46,384)","Mar 15, 2021",24.94,46384,2021-03-15
8095,Sold,0x491be7,0xe98492,"11Ξ ($19,962)","Feb 17, 2021",11,19962,2021-02-17
8095,Sold,EliteCat…,0x491be7,"5Ξ ($1,863)","Oct 11, 2020",5,1863,2020-10-11
8095,Sold,0xf0f068…,GoWest23,0.88Ξ ($142),"Jan 16, 2020",0.88,142,2020-01-16
8095,Sold,Goop,0xf0f068…,0.37Ξ ($49),"Dec 22, 2019",0.37,49,2019-12-22
8095,Sold,juggerna…,Goop,0.25Ξ ($38),"Nov 22, 2019",0.25,38,2019-11-22
8098,Sold,0x35cdf4,Gilzar,1.50Ξ ($300),"May 26, 2020",1.5,300,2020-05-26
8098,Sold,0x231707,0x35cdf4,0.30Ξ ($113),"Aug 07, 2018",0.3,113,2018-08-07
8099,Sold,0x22160e,45688,0.31Ξ ($69),"Jul 18, 2017",0.31,69,2017-07-18
8100,Sold,0xdc569c,0x185703,"4Ξ ($1,361)","Sep 06, 2020",4,1361,2020-09-06
8101,Sold,Hemba,0x93db36,2.50Ξ ($961),"Sep 20, 2020",2.5,961,2020-09-20
8103,Sold,5657750,713044,"30Ξ ($53,525)","Mar 18, 2021",30,53525,2021-03-18
8103,Sold,13275108,5657750,"11.50Ξ ($20,799)","Feb 14, 2021",11.5,20799,2021-02-14
8104,Sold,0x1a96af,azkaban,0.54Ξ ($107),"Apr 29, 2020",0.54,107,2020-04-29
8105,Sold,0x577ebc,TokenAng…,"50Ξ ($77,528)","Feb 03, 2021",50,77528,2021-02-03
8107,Sold,0xe4c479,itsfine,"2.90Ξ ($1,022)","Sep 26, 2020",2.9,1022,2020-09-26
8107,Sold,Hemba,0xe4c479,"2.75Ξ ($1,046)","Sep 20, 2020",2.75,1046,2020-09-20
8108,Sold,0xc155f9,0x1e243e,"14.88Ξ ($28,304)","Feb 18, 2021",14.88,28304,2021-02-18
8108,Sold,0xe754d1,0xc155f9,"4.80Ξ ($1,690)","Oct 02, 2020",4.8,1690,2020-10-02
8108,Sold,j1mmy,0xe754d1,"3.27Ξ ($1,173)","Sep 28, 2020",3.27,1173,2020-09-28
8108,Sold,ChrisR,j1mmy,1.08Ξ ($397),"Sep 10, 2020",1.08,397,2020-09-10
8108,Sold,0x1a96af,Pranksy,0.91Ξ ($192),"May 19, 2020",0.91,192,2020-05-19
8109,Sold,0xcb58b8,15555541,"22Ξ ($45,940)","Apr 09, 2021",22,45940,2021-04-09
8109,Sold,0xca8fe4,13326520,"16.50Ξ ($34,106)","Apr 08, 2021",16.5,34106,2021-04-08
8113,Sold,zaphod,0xef784c,"24Ξ ($43,514)","Mar 12, 2021",24,43514,2021-03-12
8116,Sold,11268359,14869899,"23.50Ξ ($41,893)","Mar 19, 2021",23.5,41893,2021-03-19
8116,Sold,1700403,11268359,"24Ξ ($43,114)","Mar 16, 2021",24,43114,2021-03-16
8122,Sold,223332,0x7a3960,"4.98Ξ ($1,864)","Oct 12, 2020",4.98,1864,2020-10-12
8122,Sold,Hemba,223332,1.80Ξ ($617),"Sep 22, 2020",1.8,617,2020-09-22
8123,Sold,Hemba,0xf4a775,0.11Ξ ($51),"Dec 04, 2017",0.11,51,2017-12-04
8124,Sold,0xdcf227,7348023,"34.99Ξ ($53,763)","Mar 06, 2021",34.99,53763,2021-03-06
8124,Sold,0xe794fd,14479911,"27Ξ ($51,800)","Feb 22, 2021",27,51800,2021-02-22
8124,Sold,0x382681,15176957,"16Ξ ($28,946)","Feb 14, 2021",16,28946,2021-02-14
8124,Sold,0x00d7c9,3679873,0.30Ξ ($63),"Aug 09, 2019",0.3,63,2019-08-09
8125,Sold,j1mmy_va…,0xda202a,"8Ξ ($9,855)","Jan 24, 2021",8,9855,2021-01-24
8125,Sold,0xe45df5,j1mmy,0.53Ξ ($92),"May 06, 2019",0.53,92,2019-05-06
8130,Sold,0x287bd6,0xc8b3ef,0.95Ξ ($219),"Mar 06, 2020",0.95,219,2020-03-06
8130,Sold,0x61e7e7,helpchai…,0.75Ξ ($139),"Feb 04, 2020",0.75,139,2020-02-04
8130,Sold,0x682c30,0x61e7e7,0.49Ξ ($120),"Jun 11, 2019",0.49,120,2019-06-11
8132,Sold,kyloren,0xf8a4f6,"5.20Ξ ($6,735)","Jan 28, 2021",5.2,6735,2021-01-28
8132,Sold,GoWest23,kyloren,"5.20Ξ ($1,836)","Sep 29, 2020",5.2,1836,2020-09-29
8132,Sold,Pixls,GoWest23,0.46Ξ ($80),"May 06, 2019",0.46,80,2019-05-06
8132,Sold,Cyborg,Pixls,0.25Ξ ($25),"Dec 19, 2018",0.25,25,2018-12-19
8133,Sold,Hemba,0x03911f,0.08Ξ ($56),"Apr 24, 2018",0.08,56,2018-04-24
8134,Sold,Pranksy,PB,3.99Ξ ($834),"May 03, 2020",3.99,834,2020-05-03
8134,Sold,0xfb077c,0x0601d0,1Ξ ($272),"Jun 20, 2019",1,272,2019-06-20
8135,Sold,1742511,artofrjm,1.25Ξ ($252),"May 26, 2020",1.25,252,2020-05-26
8139,Sold,5966219,niwin,"5.87Ξ ($7,399)","Jan 27, 2021",5.87,7399,2021-01-27
8140,Sold,15010895,5303351,"28.50Ξ ($53,487)","Mar 14, 2021",28.5,53487,2021-03-14
8140,Sold,6689278,15010895,"18.50Ξ ($36,027)","Feb 20, 2021",18.5,36027,2021-02-20
8142,Sold,Cyborg,0x7d9f4a,0.30Ξ ($91),"Jun 24, 2017",0.3,91,2017-06-24
8143,Sold,0x0f692f,0x829056,"21Ξ ($43,004)","Apr 08, 2021",21,43004,2021-04-08
8143,Sold,Pranksy,gaus,2.75Ξ ($949),"Sep 25, 2020",2.75,949,2020-09-25
8143,Sold,Hemba,Pranksy,2.30Ξ ($796),"Sep 24, 2020",2.3,796,2020-09-24
8144,Sold,0xf4239e,gaus,"3.50Ξ ($1,252)","Sep 28, 2020",3.5,1252,2020-09-28
8144,Sold,Hemba,0xf4239e,2.30Ξ ($796),"Sep 24, 2020",2.3,796,2020-09-24
8146,Sold,EliteCat…,0x5b331e,"30Ξ ($39,578)","Jan 10, 2021",30,39578,2021-01-10
8146,Sold,0x99a594,EliteCat…,"10Ξ ($1,339)","Jan 04, 2020",10,1339,2020-01-04
8146,Sold,Cyborg,0x99a594,"1Ξ ($1,139)","Jan 11, 2018",1,1139,2018-01-11
8146,Sold,0x8ba3e2,Cyborg,0.38Ξ ($117),"Oct 30, 2017",0.38,117,2017-10-30
8148,Sold,7293485,7187448,"34.50Ξ ($63,004)","Mar 11, 2021",34.5,63004,2021-03-11
8149,Sold,755965,337252,"24Ξ ($47,826)","Apr 07, 2021",24,47826,2021-04-07
8150,Sold,0x6611fe,aviexkak…,"8.79Ξ ($15,996)","Feb 15, 2021",8.79,15996,2021-02-15
8151,Sold,6689278,4674918,"9.49Ξ ($16,901)","Feb 16, 2021",9.49,16901,2021-02-16
8152,Sold,0xfba169,7435267,0.05Ξ ($13),"Jun 26, 2017",0.05,13,2017-06-26
8153,Sold,7293485,11146436,"9Ξ ($16,456)","Feb 14, 2021",9,16456,2021-02-14
8157,Sold,DANNY,0xf5f26a,0.99Ξ ($353),"Sep 09, 2020",0.99,353,2020-09-09
8157,Sold,0x6611fe,DANNY,0.89Ξ ($195),"May 03, 2020",0.89,195,2020-05-03
8158,Sold,Loopify,0xbaa84e,"22Ξ ($45,405)","Apr 08, 2021",22,45405,2021-04-08
8158,Sold,👨🏻‍🌾.…,Loopify,"18Ξ ($37,206)","Apr 08, 2021",18,37206,2021-04-08
8158,Sold,0x44ad71,👨🏻‍🌾.…,"7.40Ξ ($13,335)","Feb 13, 2021",7.4,13335,2021-02-13
8158,Sold,OnlyToas…,0x44ad71,2.08Ξ ($755),"Sep 15, 2020",2.08,755,2020-09-15
8158,Sold,Pranksy,OnlyToas…,2Ξ ($737),"Sep 15, 2020",2,737,2020-09-15
8158,Sold,Konohime,Pranksy,1.90Ξ ($716),"Sep 14, 2020",1.9,716,2020-09-14
8158,Sold,Pranksy,Konohime,0.30Ξ ($51),"Sep 29, 2019",0.3,51,2019-09-29
8158,Sold,0x00d7c9,Pranksy,0.30Ξ ($69),"Jul 20, 2019",0.3,69,2019-07-20
8163,Sold,Theodora,0x48c85c,"25.59Ξ ($37,531)","Feb 26, 2021",25.59,37531,2021-02-26
8163,Sold,Hemba,Theodora,1.50Ξ ($581),"Sep 13, 2020",1.5,581,2020-09-13
8164,Sold,Party,davey.et…,"5Ξ ($1,867)","Oct 11, 2020",5,1867,2020-10-11
8164,Sold,capital_…,Party,"5.99Ξ ($2,233)","Oct 11, 2020",5.99,2233,2020-10-11
8164,Sold,0x2a6227,capital_…,1.97Ξ ($717),"Sep 13, 2020",1.97,717,2020-09-13
8164,Sold,TweetyPi…,0x2a6227,1.45Ξ ($341),"May 31, 2020",1.45,341,2020-05-31
8164,Sold,scalynel…,TweetyPi…,1.55Ξ ($311),"May 26, 2020",1.55,311,2020-05-26
8164,Sold,0x6611fe,scalynel…,0.99Ξ ($142),"Jan 07, 2020",0.99,142,2020-01-07
8166,Sold,0x596572,16198903,"23.50Ξ ($39,308)","Mar 26, 2021",23.5,39308,2021-03-26
8166,Sold,0x3dae9a,5858674,"22.99Ξ ($38,910)","Mar 23, 2021",22.99,38910,2021-03-23
8172,Sold,6689278,0xce6969,"23.75Ξ ($36,507)","Mar 01, 2021",23.75,36507,2021-03-01
8173,Sold,6689278,0xfaf959…,"22.95Ξ ($35,747)","Mar 04, 2021",22.95,35747,2021-03-04
8175,Sold,0xabf107,6666831,"22.99Ξ ($47,928)","Apr 09, 2021",22.99,47928,2021-04-09
8175,Sold,0x0b88fd,11268359,"21Ξ ($43,407)","Apr 08, 2021",21,43407,2021-04-08
8177,Sold,0x753b20,0xa8362a,"19.80Ξ ($40,837)","Apr 09, 2021",19.8,40837,2021-04-09
8177,Sold,0x6fcade,0x753b20,"14Ξ ($28,899)","Apr 04, 2021",14,28899,2021-04-04
8177,Sold,0xbb048e,0x22fa8c,"23Ξ ($39,894)","Feb 22, 2021",23,39894,2021-02-22
8177,Sold,0x6611fe,0xbb048e,"15Ξ ($29,370)","Feb 21, 2021",15,29370,2021-02-21
8178,Sold,0xc96de7,9059630,"24.90Ξ ($51,390)","Apr 08, 2021",24.9,51390,2021-04-08
8178,Sold,0xe1bb6e,13200871,"19.99Ξ ($35,494)","Mar 11, 2021",19.99,35494,2021-03-11
8178,Sold,0x6611fe,5789525,0.49Ξ ($88),"Oct 12, 2019",0.49,88,2019-10-12
8180,Sold,755965,13941413,"19.50Ξ ($32,434)","Mar 23, 2021",19.5,32434,2021-03-23
8183,Sold,0x5b098b,CryptoNo…,"6.50Ξ ($2,472)","Sep 20, 2020",6.5,2472,2020-09-20
8183,Sold,0x6611fe,0x5b098b,0.25Ξ ($66),"Jul 06, 2017",0.25,66,2017-07-06
8185,Sold,755965,7753007,"19Ξ ($32,290)","Mar 23, 2021",19,32290,2021-03-23
8187,Sold,0x7fbc25,Michel_M…,"25Ξ ($33,249)","Feb 01, 2021",25,33249,2021-02-01
8187,Sold,devboi,0x7fbc25,"7.09Ξ ($10,031)","Jan 25, 2021",7.09,10031,2021-01-25
8187,Sold,0xc00c2b,devboi,1.95Ξ ($603),"Jun 28, 2019",1.95,603,2019-06-28
8188,Sold,0x3e17fa,0xc2ecb8,"20Ξ ($36,395)","Feb 15, 2021",20,36395,2021-02-15
8188,Sold,likeit,0x3e17fa,"16Ξ ($29,255)","Feb 14, 2021",16,29255,2021-02-14
8188,Sold,Arsonic,likeit,"7.50Ξ ($2,658)","Oct 05, 2020",7.5,2658,2020-10-05
8188,Sold,MrTpunks,Arsonic,1.55Ξ ($600),"Aug 04, 2020",1.55,600,2020-08-04
8188,Sold,Carlini8,0x1f8add,2Ξ ($380),"May 10, 2020",2,380,2020-05-10
8188,Sold,Pranksy,Carlini8,0.65Ξ ($83),"Jan 03, 2020",0.65,83,2020-01-03
8189,Sold,ChrisR,metapurs…,0.98Ξ ($365),"Sep 10, 2020",0.98,365,2020-09-10
8189,Sold,0xb6be4d,Pranksy,0.90Ξ ($182),"May 22, 2020",0.9,182,2020-05-22
8190,Sold,Sylveste…,0x_NFT,"6Ξ ($2,339)","Oct 21, 2020",6,2339,2020-10-21
8190,Sold,0x2306e1,Sylveste…,"8.50Ξ ($3,083)","Sep 28, 2020",8.5,3083,2020-09-28
8190,Sold,Alex3422,0x2306e1,"5.75Ξ ($2,187)","Sep 20, 2020",5.75,2187,2020-09-20
8190,Sold,0x61e7e7,Alex3422,0.79Ξ ($113),"Jan 10, 2020",0.79,113,2020-01-10
8190,Sold,Hemba,0x61e7e7,0.55Ξ ($145),"Jun 12, 2019",0.55,145,2019-06-12
8191,Sold,Pranksy,0x0e4437,"105Ξ ($182,951)","Mar 11, 2021",105,182951,2021-03-11
8191,Sold,0x787b92,Pranksy,"82Ξ ($129,776)","Mar 04, 2021",82,129776,2021-03-04
8195,Sold,ross_VRO…,PB,0.50Ξ ($124),"May 15, 2019",0.5,124,2019-05-15
8195,Sold,Pixls,ross_VRO…,0.40Ξ ($53),"Mar 13, 2019",0.4,53,2019-03-13
8195,Sold,0x5d99d4,Pixls,0.20Ξ ($27),"Feb 27, 2019",0.2,27,2019-02-27
8195,Sold,0x00d7c9,0x5d99d4,0.10Ξ ($30),"Oct 31, 2017",0.1,30,2017-10-31
8196,Sold,0x74be0a,0xce4c5e,"29.99Ξ ($40,806)","Feb 28, 2021",29.99,40806,2021-02-28
8196,Sold,0xaae8c5,0x74be0a,"23.99Ξ ($42,520)","Feb 22, 2021",23.99,42520,2021-02-22
8196,Sold,0x231707,0x_NFT,"5Ξ ($1,819)","Sep 28, 2020",5,1819,2020-09-28
8205,Sold,0x00d7c9,0xdbed69…,0.50Ξ ($108),"Aug 11, 2019",0.5,108,2019-08-11
8208,Sold,1700403,0xa6e2e9,"22Ξ ($33,542)","Mar 04, 2021",22,33542,2021-03-04
8209,Sold,0x9113d4,snax,"23.50Ξ ($36,604)","Mar 02, 2021",23.5,36604,2021-03-02
8209,Sold,0xd8e806,0x9113d4,0.18Ξ ($53),"Aug 13, 2017",0.18,53,2017-08-13
8209,Sold,0xbc081c,0xd8e806,0.30Ξ ($58),"Jul 19, 2017",0.3,58,2017-07-19
8210,Sold,0x19f233,barthazi…,"15Ξ ($29,020)","Feb 18, 2021",15,29020,2021-02-18
8211,Sold,0x1a96af,Catdog,0.53Ξ ($102),"Apr 27, 2020",0.53,102,2020-04-27
8212,Sold,0x13816f,0x8a76b7,"7.80Ξ ($14,343)","Feb 14, 2021",7.8,14343,2021-02-14
8212,Sold,itsfine,0x13816f,"4.60Ξ ($1,720)","Oct 12, 2020",4.6,1720,2020-10-12
8212,Sold,Hemba,0x93db36,2.50Ξ ($961),"Sep 20, 2020",2.5,961,2020-09-20
8214,Sold,0xbc081c,Tschuuul…,0.29Ξ ($46),"Apr 15, 2019",0.29,46,2019-04-15
8215,Sold,0x2a3bcc,0xcf533a,"6.25Ξ ($11,087)","Feb 12, 2021",6.25,11087,2021-02-12
8215,Sold,TweetyPi…,0x2a3bcc,"5.30Ξ ($8,440)","Feb 05, 2021",5.3,8440,2021-02-05
8215,Sold,aclCrypt…,TweetyPi…,"4.50Ξ ($5,468)","Jan 07, 2021",4.5,5468,2021-01-07
8215,Sold,0x00d7c9,aclCrypt…,0.10Ξ ($74),"Dec 29, 2017",0.1,74,2017-12-29
8216,Sold,MrTpunks…,0x2f120e,0.65Ξ ($168),"Feb 20, 2020",0.65,168,2020-02-20
8216,Sold,0x682c30,MrTpunks…,0.69Ξ ($111),"Jan 16, 2020",0.69,111,2020-01-16
8219,Sold,0x33eaae,gmoney,"140Ξ ($150,275)","Jan 06, 2021",140,150275,2021-01-06
8220,Sold,Pranksy,0xccc003,"32.50Ξ ($47,760)","Feb 27, 2021",32.5,47760,2021-02-27
8220,Sold,0x33eaae,Pranksy,"13Ξ ($22,984)","Feb 09, 2021",13,22984,2021-02-09
8221,Sold,7293485,straybit…,"42.50Ξ ($78,654)","Mar 20, 2021",42.5,78654,2021-03-20
8224,Sold,0xc04f55,0x67c443,"17.95Ξ ($35,171)","Feb 21, 2021",17.95,35171,2021-02-21
8224,Sold,0x7f6ca7,Dude_Nak…,0.25Ξ ($140),"Mar 21, 2018",0.25,140,2018-03-21
8224,Sold,0xbc081c,0x7f6ca7,0.15Ξ ($65),"Dec 10, 2017",0.15,65,2017-12-10
8226,Sold,Carlini8,Zonked,2.50Ξ ($865),"Sep 24, 2020",2.5,865,2020-09-24
8226,Sold,natealex,Carlini8,1.79Ξ ($673),"Sep 14, 2020",1.79,673,2020-09-14
8226,Sold,_K_A_M_I…,natealex,1.50Ξ ($310),"May 28, 2020",1.5,310,2020-05-28
8226,Sold,TweetyPi…,_K_A_M_I…,1.40Ξ ($291),"May 24, 2020",1.4,291,2020-05-24
8226,Sold,Hemba,TweetyPi…,1.10Ξ ($218),"May 21, 2020",1.1,218,2020-05-21
8227,Sold,0xd69e74,grunar.e…,"18.80Ξ ($36,044)","Feb 20, 2021",18.8,36044,2021-02-20
8227,Sold,Hex,0xd69e74,"8.88Ξ ($16,126)","Feb 14, 2021",8.88,16126,2021-02-14
8227,Sold,0xde0193,Hex,"4Ξ ($2,931)","Dec 31, 2020",4,2931,2020-12-31
8229,Sold,6827056,12800693,0.49Ξ ($42),"Dec 13, 2018",0.49,42,2018-12-13
8230,Sold,6827056,45688,0.39Ξ ($94),"Jul 07, 2017",0.39,94,2017-07-07
8231,Sold,0x00d7c9,CyrusOld,0.05Ξ ($29),"Jun 01, 2018",0.05,29,2018-06-01
8233,Sold,0xca8fe4,0x4885aa,"8.50Ξ ($15,561)","Feb 14, 2021",8.5,15561,2021-02-14
8233,Sold,Cyborg,0x00bd9f,0.20Ξ ($57),"Jul 02, 2017",0.2,57,2017-07-02
8234,Sold,12322844,3371265,0.15Ξ ($33),"Oct 03, 2018",0.15,33,2018-10-03
8237,Sold,Pixls,0xc2cf71,0.60Ξ ($85),"Mar 16, 2019",0.6,85,2019-03-16
8237,Sold,0xfadd89,Pixls,0.30Ξ ($43),"Mar 16, 2019",0.3,43,2019-03-16
8237,Sold,0x00d7c9,0xfadd89,0.05Ξ ($25),"Jun 12, 2018",0.05,25,2018-06-12
8238,Sold,Michel_M…,snax,"2.90Ξ ($1,086)","Sep 14, 2020",2.9,1086,2020-09-14
8238,Sold,0x0553de,Michel_M…,0.98Ξ ($370),"Aug 07, 2020",0.98,370,2020-08-07
8238,Sold,0x3a8441,0x0553de,1.49Ξ ($296),"May 26, 2020",1.49,296,2020-05-26
8239,Sold,0xbc081c,panch,0.15Ξ ($68),"Dec 08, 2017",0.15,68,2017-12-08
8241,Sold,Hemba,sov,0.23Ξ ($107),"Nov 28, 2017",0.23,107,2017-11-28
8242,Sold,0x6ec30f,0x4947da,"36.69Ξ ($65,980)","Mar 21, 2021",36.69,65980,2021-03-21
8242,Sold,0x42129d,0x6ec30f,"33Ξ ($59,422)","Mar 16, 2021",33,59422,2021-03-16
8242,Sold,TokenAng…,0x42129d,"35Ξ ($47,105)","Feb 28, 2021",35,47105,2021-02-28
8242,Sold,0x18ed92,TokenAng…,"17Ξ ($32,705)","Feb 18, 2021",17,32705,2021-02-18
8242,Sold,MadMax,0x18ed92,"12.75Ξ ($23,187)","Feb 14, 2021",12.75,23187,2021-02-14
8242,Sold,0x577ebc,MadMax,"8.50Ξ ($15,446)","Feb 14, 2021",8.5,15446,2021-02-14
8243,Sold,0x00ce50,shilpixe…,"24.49Ξ ($46,622)","Feb 19, 2021",24.49,46622,2021-02-19
8244,Sold,coinduph…,0xd7b105,"4.13Ξ ($1,524)","Oct 20, 2020",4.13,1524,2020-10-20
8244,Sold,0x8234be,coinduph…,0.09Ξ ($60),"May 01, 2018",0.09,60,2018-05-01
8246,Sold,Pranksy,0x196a3d,1.99Ξ ($771),"Sep 13, 2020",1.99,771,2020-09-13
8246,Sold,juggerna…,alxo,0.25Ξ ($38),"Nov 23, 2019",0.25,38,2019-11-23
8247,Sold,charley,0x4322aa,"6.80Ξ ($11,200)","Feb 03, 2021",6.8,11200,2021-02-03
8247,Sold,0x19ac60,flipper_,"6Ξ ($3,711)","Dec 23, 2020",6,3711,2020-12-23
8249,Sold,0xd8e806,0x9113d4,0.18Ξ ($53),"Aug 13, 2017",0.18,53,2017-08-13
8249,Sold,0xbc081c,0xd8e806,0.30Ξ ($58),"Jul 19, 2017",0.3,58,2017-07-19
8250,Sold,0x00d7c9,Dude_Nak…,0.35Ξ ($60),"Apr 21, 2019",0.35,60,2019-04-21
8251,Sold,Zieg,0x7760e0,0.65Ξ ($184),"Sep 20, 2017",0.65,184,2017-09-20
8252,Sold,14966261,12800693,0.51Ξ ($44),"Dec 13, 2018",0.51,44,2018-12-13
8253,Sold,0xdcf227,0xfc2a61,"28.25Ξ ($54,380)","Feb 21, 2021",28.25,54380,2021-02-21
8253,Sold,0xe96c3e,0xdcf227,"25Ξ ($49,323)","Feb 21, 2021",25,49323,2021-02-21
8253,Sold,0xe45df5,el,0.57Ξ ($81),"Mar 31, 2019",0.57,81,2019-03-31
8254,Sold,0xe45df5,snowfro,1.30Ξ ($205),"Apr 28, 2019",1.3,205,2019-04-28
8255,Sold,14966261,45688,0.39Ξ ($105),"Jul 04, 2017",0.39,105,2017-07-04
8256,Sold,0xe45df5,12800693,0.27Ξ ($23),"Dec 13, 2018",0.27,23,2018-12-13
8260,Sold,0x58164b,Kenney,0.14Ξ ($105),"May 07, 2018",0.14,105,2018-05-07
8262,Sold,0x7a3588,shilpixe…,"29Ξ ($61,937)","Apr 11, 2021",29,61937,2021-04-11
8262,Sold,CPyrc,0x7a3588,"9.75Ξ ($17,682)","Feb 17, 2021",9.75,17682,2021-02-17
8262,Sold,0xa546cf,CPyrc,"8.08Ξ ($14,388)","Feb 15, 2021",8.08,14388,2021-02-15
8262,Sold,Korniej,0xa546cf,"5.50Ξ ($4,033)","Dec 30, 2020",5.5,4033,2020-12-30
8262,Sold,Pixls,Korniej,2.85Ξ ($969),"Sep 23, 2020",2.85,969,2020-09-23
8262,Sold,Carlini8,Pixls,1.99Ξ ($736),"Sep 15, 2020",1.99,736,2020-09-15
8262,Sold,Hemba,Carlini8,1.30Ξ ($261),"May 26, 2020",1.3,261,2020-05-26
8263,Sold,0x577ebc,16722004,"29Ξ ($51,523)","Mar 21, 2021",29,51523,2021-03-21
8267,Sold,Dude_Nak…,0x7e5280,0.85Ξ ($222),"May 19, 2019",0.85,222,2019-05-19
8267,Sold,0x58164b,Dude_Nak…,0.08Ξ ($16),"Oct 14, 2018",0.08,16,2018-10-14
8268,Sold,0xca8fe4,14240741,"26.05Ξ ($43,649)","Mar 27, 2021",26.05,43649,2021-03-27
8270,Sold,13275108,4997008,"39.50Ξ ($71,798)","Mar 18, 2021",39.5,71798,2021-03-18
8273,Sold,renaissa…,0xad4f67,"24.50Ξ ($40,398)","Feb 24, 2021",24.5,40398,2021-02-24
8273,Sold,0xc324b8,renaissa…,"23.30Ξ ($39,365)","Feb 24, 2021",23.3,39365,2021-02-24
8273,Sold,0xca8fe4,0xc324b8,"9.10Ξ ($16,607)","Feb 14, 2021",9.1,16607,2021-02-14
8274,Sold,0x54d7f9,0xe8bd50,"28Ξ ($48,808)","Mar 08, 2021",28,48808,2021-03-08
8274,Sold,0xb941f9,0x54d7f9,"25Ξ ($36,557)","Feb 23, 2021",25,36557,2021-02-23
8274,Sold,0x3e17fa,0xb941f9,"11Ξ ($19,399)","Feb 15, 2021",11,19399,2021-02-15
8274,Sold,azkaban,0x3e17fa,"5.70Ξ ($2,020)","Oct 05, 2020",5.7,2020,2020-10-05
8274,Sold,0x27c79a,azkaban,0.51Ξ ($99),"Apr 26, 2020",0.51,99,2020-04-26
8274,Sold,Pranksy,0x27c79a,0.50Ξ ($72),"Jan 07, 2020",0.5,72,2020-01-07
8274,Sold,0x00d7c9,Pranksy,0.25Ξ ($45),"Sep 02, 2019",0.25,45,2019-09-02
8275,Sold,jmg,0x374bd1,0.65Ξ ($160),"May 23, 2019",0.65,160,2019-05-23
8275,Sold,0x00d7c9,jmg,0.35Ξ ($61),"May 06, 2019",0.35,61,2019-05-06
8276,Sold,13819048,10361245,0.40Ξ ($48),"Jan 22, 2019",0.4,48,2019-01-22
8276,Sold,55241,13819048,0.10Ξ ($60),"Jun 08, 2018",0.1,60,2018-06-08
8278,Sold,0xc04f55,0x4a7601,"44.95Ξ ($65,293)","Mar 01, 2021",44.95,65293,2021-03-01
8278,Sold,0x00d7c9,Dude_Nak…,0.45Ξ ($133),"Jun 21, 2019",0.45,133,2019-06-21
8279,Sold,TheNat,0xefcc4c,"11.25Ξ ($20,115)","Feb 16, 2021",11.25,20115,2021-02-16
8279,Sold,Korniej,TheNat,"6.90Ξ ($9,349)","Jan 26, 2021",6.9,9349,2021-01-26
8279,Sold,treetop,Korniej,2.90Ξ ($992),"Sep 22, 2020",2.9,992,2020-09-22
8279,Sold,Hemba,treetop,1.50Ξ ($312),"May 22, 2020",1.5,312,2020-05-22
8280,Sold,0xce7a9f,0x623fc4,"28.69Ξ ($53,896)","Mar 15, 2021",28.69,53896,2021-03-15
8280,Sold,lemondro…,0xce7a9f,"6.75Ξ ($7,720)","Jan 06, 2021",6.75,7720,2021-01-06
8280,Sold,flipper_,lemondro…,"6Ξ ($2,104)","Oct 03, 2020",6,2104,2020-10-03
8280,Sold,0xdfe5f1,flipper_,"5.50Ξ ($1,973)","Sep 30, 2020",5.5,1973,2020-09-30
8280,Sold,0x00d7c9,0xdfe5f1,0.05Ξ ($28),"May 30, 2018",0.05,28,2018-05-30
8282,Sold,0x691b87,0xd3e2e7,"27.99Ξ ($57,228)","Apr 03, 2021",27.99,57228,2021-04-03
8282,Sold,0xcd879e,0xeb725f,"42Ξ ($74,440)","Feb 22, 2021",42,74440,2021-02-22
8282,Sold,jmg,0xcd879e,0.79Ξ ($105),"Mar 11, 2019",0.79,105,2019-03-11
8282,Sold,0x00d7c9,0x00bd3a,0.50Ξ ($102),"Jul 25, 2017",0.5,102,2017-07-25
8284,Sold,CPyrc,0x4322aa,"12Ξ ($15,605)","Jan 27, 2021",12,15605,2021-01-27
8284,Sold,devboi,CPyrc,"6Ξ ($8,389)","Jan 25, 2021",6,8389,2021-01-25
8284,Sold,0x61e7e7,devboi,2Ξ ($619),"Jun 28, 2019",2,619,2019-06-28
8284,Sold,0x6611fe,0x61e7e7,0.57Ξ ($96),"May 07, 2019",0.57,96,2019-05-07
8285,Sold,0x3efe8b,0x436ffb,"23.25Ξ ($43,713)","Mar 14, 2021",23.25,43713,2021-03-14
8285,Sold,0xa6e2e9,0x3efe8b,"20.95Ξ ($30,685)","Feb 27, 2021",20.95,30685,2021-02-27
8285,Sold,flipper_,0xa6e2e9,"20.49Ξ ($31,416)","Feb 25, 2021",20.49,31416,2021-02-25
8285,Sold,Korniej,flipper_,"2.99Ξ ($1,061)","Sep 25, 2020",2.99,1061,2020-09-25
8285,Sold,0xe754d1,Korniej,2.20Ξ ($740),"Sep 24, 2020",2.2,740,2020-09-24
8285,Sold,Pranksy,0xe754d1,1.90Ξ ($717),"Sep 14, 2020",1.9,717,2020-09-14
8285,Sold,juggerna…,alxo,0.25Ξ ($38),"Nov 23, 2019",0.25,38,2019-11-23
8288,Sold,Pixls,Goop,0.43Ξ ($57),"Dec 30, 2019",0.43,57,2019-12-30
8288,Sold,0x00d7c9,Pixls,0.10Ξ ($30),"Sep 01, 2018",0.1,30,2018-09-01
8289,Sold,0x00d7c9,zaphodok,0.10Ξ ($48),"Jul 18, 2018",0.1,48,2018-07-18
8291,Sold,12322844,7823584,0.16Ξ ($36),"Jul 18, 2017",0.16,36,2017-07-18
8298,Sold,0x691b87,0xb0f96a,"20Ξ ($36,473)","Mar 31, 2021",20,36473,2021-03-31
8298,Sold,0x97ff8f,0xeb725f,"32Ξ ($57,068)","Feb 22, 2021",32,57068,2021-02-22
8298,Sold,0x3f1724,KVG_Digi…,1Ξ ($166),"Jan 15, 2020",1,166,2020-01-15
8298,Sold,0x00d7c9,0x3f1724,0.10Ξ ($37),"Nov 20, 2017",0.1,37,2017-11-20
8299,Sold,0x577ebc,970122,"79.99Ξ ($148,243)","Mar 20, 2021",79.99,148243,2021-03-20
8300,Sold,TokyoBas…,PB,0.70Ξ ($116),"Apr 24, 2019",0.7,116,2019-04-24
8300,Sold,0x58164b,TokyoBas…,0.05Ξ ($19),"Apr 04, 2018",0.05,19,2018-04-04
8301,Sold,Hemba,0x33f848,0.14Ξ ($29),"Oct 23, 2018",0.14,29,2018-10-23
8302,Sold,6373D,0x280bf6,"5.99Ξ ($3,766)","Dec 22, 2020",5.99,3766,2020-12-22
8302,Sold,0x13816f,6373D,"5Ξ ($1,889)","Oct 15, 2020",5,1889,2020-10-15
8302,Sold,GtC,0x13816f,"4Ξ ($1,445)","Oct 09, 2020",4,1445,2020-10-09
8302,Sold,0x00d7c9,GtC,0.25Ξ ($45),"Sep 08, 2019",0.25,45,2019-09-08
8303,Sold,TokenAng…,0xad9f11,"9Ξ ($11,133)","Jan 27, 2021",9,11133,2021-01-27
8303,Sold,0x470e9b,TokenAng…,1.50Ξ ($305),"May 22, 2020",1.5,305,2020-05-22
8305,Sold,0xb044af,8338175,"46Ξ ($88,250)","Feb 18, 2021",46,88250,2021-02-18
8307,Sold,Pranksy,gaus,"40Ξ ($14,470)","Oct 01, 2020",40,14470,2020-10-01
8307,Sold,Snowfro,Pranksy,"58.50Ξ ($21,021)","Sep 28, 2020",58.5,21021,2020-09-28
8308,Sold,Hemba,0x9b35db,1.10Ξ ($421),"Aug 26, 2020",1.1,421,2020-08-26
8309,Sold,Pranksy,0xa9d5f8,1.20Ξ ($467),"Aug 26, 2020",1.2,467,2020-08-26
8309,Sold,0xe45df5,Pranksy,0.76Ξ ($103),"Jan 05, 2020",0.76,103,2020-01-05
8312,Sold,Goop,ross_VRO…,0.54Ξ ($77),"Jan 07, 2020",0.54,77,2020-01-07
8312,Sold,0x87e225,Goop,0.53Ξ ($76),"Jan 07, 2020",0.53,76,2020-01-07
8312,Sold,0x00d7c9,0x87e225,0.35Ξ ($77),"Jul 19, 2019",0.35,77,2019-07-19
8313,Sold,ross_VRO…,PB,1.99Ξ ($416),"May 03, 2020",1.99,416,2020-05-03
8313,Sold,0xc00c2b,ross_VRO…,1.25Ξ ($165),"Dec 30, 2019",1.25,165,2019-12-30
8315,Sold,0x9e199d,0xd030b1,"8.90Ξ ($15,605)","Feb 09, 2021",8.9,15605,2021-02-09
8315,Sold,0xc1e42f,0x9e199d,"5.89Ξ ($2,123)","Sep 29, 2020",5.89,2123,2020-09-29
8315,Sold,0xcb832d,0xc1e42f,"5.50Ξ ($1,983)","Sep 29, 2020",5.5,1983,2020-09-29
8315,Sold,0x682c30,0xcb832d,"2.99Ξ ($1,097)","Sep 14, 2020",2.99,1097,2020-09-14
8317,Sold,ddaavvee,0xfc11f9,"12Ξ ($15,251)","Jan 27, 2021",12,15251,2021-01-27
8320,Sold,ddaavvee,0x735506,"14Ξ ($10,315)","Dec 31, 2020",14,10315,2020-12-31
8322,Sold,natealex,0x3ee505,2.30Ξ ($795),"Sep 24, 2020",2.3,795,2020-09-24
8322,Sold,0x1a96af,natealex,0.55Ξ ($110),"May 14, 2020",0.55,110,2020-05-14
8325,Sold,BigF4581…,0x287b15,0.49Ξ ($482),"Jan 23, 2018",0.49,482,2018-01-23
8325,Sold,Zieg,BigF4581…,0.19Ξ ($237),"Jan 10, 2018",0.19,237,2018-01-10
8326,Sold,Pranksy,daLenz,0.95Ξ ($218),"Jul 04, 2020",0.95,218,2020-07-04
8326,Sold,0x6611fe,Pranksy,0.57Ξ ($77),"Jan 04, 2020",0.57,77,2020-01-04
8326,Sold,0x682c30,0x6611fe,0.35Ξ ($86),"Jul 08, 2017",0.35,86,2017-07-08
8327,Sold,0xcd2c66,0x75863c,"25.85Ξ ($55,349)","Apr 11, 2021",25.85,55349,2021-04-11
8327,Sold,Hemba,0xcd2c66,1Ξ ($400),"Aug 04, 2020",1,400,2020-08-04
8328,Sold,Hemba,Kenney,0.15Ξ ($57),"Apr 04, 2018",0.15,57,2018-04-04
8330,Sold,6827056,12800693,0.69Ξ ($60),"Dec 13, 2018",0.69,60,2018-12-13
8331,Sold,0x07c5ea,0x32dd07,"21.95Ξ ($42,112)","Feb 22, 2021",21.95,42112,2021-02-22
8331,Sold,shilpixe…,0x07c5ea,"20Ξ ($38,499)","Feb 21, 2021",20,38499,2021-02-21
8331,Sold,0x052564,shilpixe…,1.50Ξ ($352),"Jun 02, 2020",1.5,352,2020-06-02
8331,Sold,0xbc081c,0xd8e806,0.30Ξ ($58),"Jul 19, 2017",0.3,58,2017-07-19
8332,Sold,1742511,10011784,0.74Ξ ($149),"May 17, 2020",0.74,149,2020-05-17
8335,Sold,0x968e01,0x104430,"16.75Ξ ($34,623)","Apr 08, 2021",16.75,34623,2021-04-08
8335,Sold,MANAmans…,gaus,"3.50Ξ ($1,252)","Sep 28, 2020",3.5,1252,2020-09-28
8335,Sold,0xe4c479,MANAmans…,"3Ξ ($1,053)","Sep 26, 2020",3,1053,2020-09-26
8335,Sold,Hemba,0xe4c479,2.50Ξ ($865),"Sep 24, 2020",2.5,865,2020-09-24
8337,Sold,5734076,6158896,"22.50Ξ ($42,006)","Mar 10, 2021",22.5,42006,2021-03-10
8339,Sold,Hemba,0x93db36,2.50Ξ ($961),"Sep 20, 2020",2.5,961,2020-09-20
8341,Sold,0x701f37,0x84d34f,"19.90Ξ ($36,075)","Mar 11, 2021",19.9,36075,2021-03-11
8341,Sold,0xaae8c5,0xff40d2,"4.89Ξ ($3,566)","Dec 29, 2020",4.89,3566,2020-12-29
8341,Sold,NeonNFT,0x177491,"3.40Ξ ($1,221)","Sep 28, 2020",3.4,1221,2020-09-28
8341,Sold,Pranksy,NeonNFT,"2.89Ξ ($1,020)","Sep 27, 2020",2.89,1020,2020-09-27
8341,Sold,Hemba,Pranksy,2.30Ξ ($796),"Sep 24, 2020",2.3,796,2020-09-24
8343,Sold,Zieg,0x4aa6a3,"5Ξ ($1,881)","Oct 14, 2020",5,1881,2020-10-14
8343,Sold,cryptoke…,Zieg,"4.85Ξ ($1,857)","Oct 14, 2020",4.85,1857,2020-10-14
8343,Sold,CPyrc,cryptoke…,"5.85Ξ ($2,085)","Sep 29, 2020",5.85,2085,2020-09-29
8343,Sold,GoWest23,CPyrc,"5.45Ξ ($1,933)","Sep 29, 2020",5.45,1933,2020-09-29
8343,Sold,0xbcdb2b…,GoWest23,0.50Ξ ($67),"Jan 04, 2020",0.5,67,2020-01-04
8343,Sold,0x00d7c9,0xbcdb2b…,0.25Ξ ($54),"Jul 22, 2019",0.25,54,2019-07-22
8344,Sold,0xca8fe4,MBK,"18Ξ ($28,601)","Feb 03, 2021",18,28601,2021-02-03
8348,Sold,EliteCat…,DANNY,"85Ξ ($18,102)","May 20, 2020",85,18102,2020-05-20
8348,Sold,0xf5099e,EliteCat…,"26.40Ξ ($4,395)","Sep 24, 2019",26.4,4395,2019-09-24
8348,Sold,0x787b92,0xa0a59c,1.50Ξ ($456),"Oct 01, 2017",1.5,456,2017-10-01
8351,Sold,7001614,8704847,"21.99Ξ ($39,863)","Mar 11, 2021",21.99,39863,2021-03-11
8351,Sold,13275108,7001614,"22.10Ξ ($30,775)","Feb 28, 2021",22.1,30775,2021-02-28
8352,Sold,0xca8fe4,jmg,"23Ξ ($41,296)","Mar 21, 2021",23,41296,2021-03-21
8356,Sold,Cyborg,0x717403,0.35Ξ ($93),"Jul 05, 2017",0.35,93,2017-07-05
8357,Sold,Michel_M…,0x13816f,"5.35Ξ ($1,824)","Oct 07, 2020",5.35,1824,2020-10-07
8357,Sold,0x067034,Michel_M…,"4.70Ξ ($1,681)","Sep 28, 2020",4.7,1681,2020-09-28
8357,Sold,Carlini8,0x067034,"5Ξ ($1,828)","Sep 15, 2020",5,1828,2020-09-15
8357,Sold,DANNY,Carlini8,"3Ξ ($1,128)","Sep 14, 2020",3,1128,2020-09-14
8357,Sold,Dude_Nak…,DANNY,0.99Ξ ($217),"May 03, 2020",0.99,217,2020-05-03
8357,Sold,0x58164b,Dude_Nak…,0.06Ξ ($45),"May 07, 2018",0.06,45,2018-05-07
8358,Sold,0xf2052f,0x8ce5d6,"13.50Ξ ($26,293)","Feb 18, 2021",13.5,26293,2021-02-18
8358,Sold,0x13816f,0xf2052f,"9.88Ξ ($18,131)","Feb 17, 2021",9.88,18131,2021-02-17
8358,Sold,CPyrc,0x13816f,"3.17Ξ ($1,119)","Sep 27, 2020",3.17,1119,2020-09-27
8358,Sold,0xb6be4d,CPyrc,"2.97Ξ ($1,051)","Sep 27, 2020",2.97,1051,2020-09-27
8363,Sold,14466930,8717546,"26Ξ ($45,660)","Mar 13, 2021",26,45660,2021-03-13
8363,Sold,2299655,14466930,"24Ξ ($46,045)","Feb 22, 2021",24,46045,2021-02-22
8365,Sold,0xb4bb41,8168120,"55Ξ ($106,141)","Apr 01, 2021",55,106141,2021-04-01
8365,Sold,0x3dae9a,11844417,"40Ξ ($67,442)","Mar 23, 2021",40,67442,2021-03-23
8366,Sold,0x71710e,13052538,0.09Ξ ($79),"Feb 09, 2018",0.09,79,2018-02-09
8376,Sold,0x09d408,0x052564,"22.99Ξ ($47,448)","Apr 08, 2021",22.99,47448,2021-04-08
8376,Sold,Kataster…,0x09d408,"22.99Ξ ($41,181)","Mar 16, 2021",22.99,41181,2021-03-16
8376,Sold,0x6611fe,Kataster…,0.60Ξ ($80),"Jan 03, 2020",0.6,80,2020-01-03
8379,Sold,0x13816f,0xcfd9cc,"22.88Ξ ($36,831)","Mar 03, 2021",22.88,36831,2021-03-03
8379,Sold,0xb58093,0x13816f,"4.50Ξ ($1,679)","Oct 10, 2020",4.5,1679,2020-10-10
8379,Sold,therealB…,madness,"4.99Ξ ($1,821)","Sep 28, 2020",4.99,1821,2020-09-28
8379,Sold,Michel_M…,therealB…,0.86Ξ ($332),"Aug 25, 2020",0.86,332,2020-08-25
8379,Sold,Hemba,Michel_M…,1.33Ξ ($303),"Jun 20, 2020",1.33,303,2020-06-20
8380,Sold,147191,412924,"35Ξ ($51,264)","Feb 27, 2021",35,51264,2021-02-27
8380,Sold,5019282,147191,"25.50Ξ ($41,078)","Feb 24, 2021",25.5,41078,2021-02-24
8380,Sold,5858674,5019282,"23.88Ξ ($46,657)","Feb 21, 2021",23.88,46657,2021-02-21
8380,Sold,7293485,5858674,"18.88Ξ ($35,893)","Feb 18, 2021",18.88,35893,2021-02-18
8381,Sold,14079978,0x22fa8c,"21.90Ξ ($37,986)","Feb 22, 2021",21.9,37986,2021-02-22
8381,Sold,7293485,0xd6d7ea,"21.50Ξ ($41,211)","Feb 22, 2021",21.5,41211,2021-02-22
8383,Sold,212711,942439,"15.49Ξ ($30,560)","Feb 21, 2021",15.49,30560,2021-02-21
8383,Sold,11976269,212711,"2.96Ξ ($1,052)","Sep 26, 2020",2.96,1052,2020-09-26
8385,Sold,EliteCat…,0xae21e3,"17Ξ ($28,094)","Mar 07, 2021",17,28094,2021-03-07
8385,Sold,Hemba,GoWest23,0.51Ξ ($68),"Jan 04, 2020",0.51,68,2020-01-04
8387,Sold,0x00d7c9,Snowfro,1Ξ ($143),"Mar 30, 2019",1,143,2019-03-30
8389,Sold,LSD,flipper_,"4.10Ξ ($1,476)","Oct 09, 2020",4.1,1476,2020-10-09
8389,Sold,Lmao,6373D,"3.52Ξ ($1,236)","Oct 08, 2020",3.52,1236,2020-10-08
8389,Sold,0xe5e771,FunBum69,"4.25Ξ ($1,523)","Sep 28, 2020",4.25,1523,2020-09-28
8389,Sold,MrNFT,0xe5e771,2.17Ξ ($737),"Sep 23, 2020",2.17,737,2020-09-23
8389,Sold,0x11c9a7,MrNFT,1.90Ξ ($643),"Sep 23, 2020",1.9,643,2020-09-23
8389,Sold,Pranksy,0x11c9a7,1.88Ξ ($690),"Sep 15, 2020",1.88,690,2020-09-15
8389,Sold,Goop,alxo,0.26Ξ ($40),"Nov 23, 2019",0.26,40,2019-11-23
8389,Sold,juggerna…,Goop,0.25Ξ ($38),"Nov 23, 2019",0.25,38,2019-11-23
8390,Sold,shilpixe…,0xbf5c1b,0.20Ξ ($23),"Nov 29, 2018",0.2,23,2018-11-29
8392,Sold,0xfba169,11446499,"60Ξ ($81,976)","Feb 28, 2021",60,81976,2021-02-28
8393,Sold,5734076,12996337,"27Ξ ($41,511)","Mar 04, 2021",27,41511,2021-03-04
8394,Sold,0x9cfd46,0xcf8401,"26Ξ ($51,533)","Apr 07, 2021",26,51533,2021-04-07
8394,Sold,0x565496,0x9cfd46,"25Ξ ($50,143)","Feb 20, 2021",25,50143,2021-02-20
8394,Sold,0x4960c4…,0x565496,"19.95Ξ ($38,376)","Feb 19, 2021",19.95,38376,2021-02-19
8394,Sold,0x5caff0…,0x4960c4…,"17Ξ ($32,485)","Feb 19, 2021",17,32485,2021-02-19
8394,Sold,0x5b331e,0x5caff0…,"8.50Ξ ($14,627)","Feb 06, 2021",8.5,14627,2021-02-06
8394,Sold,0xca8fe4,0xf1b658,"8Ξ ($13,432)","Feb 04, 2021",8,13432,2021-02-04
8395,Sold,EliteCat…,👱‍♀.eth,"24Ξ ($40,517)","Mar 28, 2021",24,40517,2021-03-28
8395,Sold,0x304288,EliteCat…,"19.77Ξ ($35,955)","Feb 17, 2021",19.77,35955,2021-02-17
8395,Sold,scalynel…,Pranksy,3.30Ξ ($679),"May 27, 2020",3.3,679,2020-05-27
8395,Sold,ross_VRO…,scalynel…,1.90Ξ ($326),"Jan 17, 2020",1.9,326,2020-01-17
8395,Sold,futurema…,ross_VRO…,0.45Ξ ($63),"Mar 20, 2019",0.45,63,2019-03-20
8395,Sold,0xc2ac3c,futurema…,0.35Ξ ($42),"Jan 18, 2019",0.35,42,2019-01-18
8395,Sold,0xbc081c,0xb11d6a,0.15Ξ ($39),"Sep 21, 2017",0.15,39,2017-09-21
8396,Sold,11976269,0xbf6ccf,"5.29Ξ ($3,831)","Dec 30, 2020",5.29,3831,2020-12-30
8401,Sold,6796292,TokenAng…,"20Ξ ($38,476)","Feb 18, 2021",20,38476,2021-02-18
8401,Sold,9557730,0x67b404,1.11Ξ ($270),"Jun 23, 2020",1.11,270,2020-06-23
8401,Sold,55241,0x91d6e2,0.75Ξ ($175),"May 18, 2019",0.75,175,2019-05-18
8402,Sold,13401139,13794879,0.79Ξ ($234),"Aug 08, 2017",0.79,234,2017-08-08
8403,Sold,shilpixe…,VonMises,2Ξ ($386),"Apr 27, 2020",2,386,2020-04-27
8405,Sold,pelvis.e…,0x024bcb,"49.99Ξ ($96,229)","Feb 21, 2021",49.99,96229,2021-02-21
8405,Sold,0xca8fe4,pelvis.e…,"15Ξ ($27,788)","Feb 13, 2021",15,27788,2021-02-13
8406,Sold,8533182,8350887,0.10Ξ ($70),"Dec 13, 2017",0.1,70,2017-12-13
8407,Sold,0xfb077c,GoWest23,1.50Ξ ($200),"Jan 04, 2020",1.5,200,2020-01-04
8408,Sold,Michel_M…,0x3ee505,2.29Ξ ($792),"Sep 24, 2020",2.29,792,2020-09-24
8408,Sold,Pranksy,Michel_M…,2.19Ξ ($752),"Sep 24, 2020",2.19,752,2020-09-24
8408,Sold,Hemba,Pranksy,1.80Ξ ($613),"Sep 22, 2020",1.8,613,2020-09-22
8409,Sold,0x20af8c,0x0e6167,"14.79Ξ ($29,179)","Feb 21, 2021",14.79,29179,2021-02-21
8409,Sold,0x033ee7,0x20af8c,"13.54Ξ ($25,959)","Feb 20, 2021",13.54,25959,2021-02-20
8409,Sold,0xe4c479,0x033ee7,"2.90Ξ ($1,031)","Sep 26, 2020",2.9,1031,2020-09-26
8409,Sold,Pranksy,0xe4c479,2.75Ξ ($937),"Sep 25, 2020",2.75,937,2020-09-25
8409,Sold,0x5aaeb9,Pranksy,2.29Ξ ($792),"Sep 24, 2020",2.29,792,2020-09-24
8409,Sold,Pranksy,0x5aaeb9,2.19Ξ ($757),"Sep 24, 2020",2.19,757,2020-09-24
8409,Sold,Hemba,Pranksy,1.80Ξ ($613),"Sep 22, 2020",1.8,613,2020-09-22
8411,Sold,EliteCat…,natealex,"33Ξ ($55,949)","Mar 27, 2021",33,55949,2021-03-27
8411,Sold,0x6f4a2d,EliteCat…,"15Ξ ($27,424)","Feb 12, 2021",15,27424,2021-02-12
8414,Sold,0x4dcaf3,393680,1.50Ξ ($314),"Apr 29, 2020",1.5,314,2020-04-29
8414,Sold,0xe45df5,5098227,0.60Ξ ($145),"Jul 07, 2017",0.6,145,2017-07-07
8417,Sold,ddaavvee,sov,0.40Ξ ($98),"Jul 08, 2017",0.4,98,2017-07-08
8423,Sold,0x033ee7,pelvis.e…,"6.82Ξ ($12,698)","Feb 13, 2021",6.82,12698,2021-02-13
8423,Sold,0x1da533,0x033ee7,"3.12Ξ ($1,079)","Sep 24, 2020",3.12,1079,2020-09-24
8423,Sold,0x1a96af,DANNY,0.79Ξ ($146),"May 11, 2020",0.79,146,2020-05-11
8424,Sold,EliteCat…,0x565496,"23.75Ξ ($36,274)","Feb 23, 2021",23.75,36274,2021-02-23
8424,Sold,0x682c30,GoWest23,0.49Ξ ($65),"Jan 04, 2020",0.49,65,2020-01-04
8425,Sold,6781763,5639058,0.59Ξ ($112),"Jul 11, 2017",0.59,112,2017-07-11
8425,Sold,6827056,6781763,0.35Ξ ($86),"Jul 08, 2017",0.35,86,2017-07-08
8427,Sold,charley,0xeb725f,"15.99Ξ ($29,343)","Feb 17, 2021",15.99,29343,2021-02-17
8427,Sold,0x19ac60,mayweall…,"6Ξ ($3,772)","Dec 22, 2020",6,3772,2020-12-22
8428,Sold,0xeb725f,0xcdd84c,"20.90Ξ ($41,615)","Feb 20, 2021",20.9,41615,2021-02-20
8428,Sold,niwin,0xeb725f,"17.90Ξ ($33,948)","Feb 18, 2021",17.9,33948,2021-02-18
8428,Sold,0x6f4a2d,niwin,"12.00Ξ ($21,968)","Feb 14, 2021",12,21968,2021-02-14
8429,Sold,15693900,11336055,"23.48Ξ ($44,860)","Mar 13, 2021",23.48,44860,2021-03-13
8429,Sold,13978758,15693900,"15.99Ξ ($28,301)","Mar 10, 2021",15.99,28301,2021-03-10
8429,Sold,1949179,15978259,0.35Ξ ($38),"Jan 30, 2019",0.35,38,2019-01-30
8429,Sold,2299655,1949179,0.10Ξ ($56),"Mar 20, 2018",0.1,56,2018-03-20
8430,Sold,0xb6be4d,1975358,"15Ξ ($28,375)","Feb 18, 2021",15,28375,2021-02-18
8431,Sold,EliteCat…,0x0ebd1a,"28.95Ξ ($51,451)","Feb 17, 2021",28.95,51451,2021-02-17
8431,Sold,jmg,GoWest23,0.85Ξ ($209),"May 23, 2019",0.85,209,2019-05-23
8431,Sold,0x00d7c9,jmg,0.70Ξ ($116),"Apr 06, 2019",0.7,116,2019-04-06
8432,Sold,0x515a82,0x5b098b,0.10Ξ ($29),"Jun 29, 2017",0.1,29,2017-06-29
8433,Sold,16349963,7074668,0.20Ξ ($37),"Sep 11, 2018",0.2,37,2018-09-11
8433,Sold,55241,16349963,0.10Ξ ($76),"Jan 01, 2018",0.1,76,2018-01-01
8434,Sold,0x000c1c…,josie,0.50Ξ ($61),"Dec 17, 2019",0.5,61,2019-12-17
8435,Sold,13275108,11234466,"25.50Ξ ($35,675)","Feb 28, 2021",25.5,35675,2021-02-28
8436,Sold,Loopify,0xcdd84c,"13.99Ξ ($27,803)","Feb 20, 2021",13.99,27803,2021-02-20
8436,Sold,0xdfce59,Loopify,"8.20Ξ ($14,831)","Feb 14, 2021",8.2,14831,2021-02-14
8436,Sold,lazyjack,0xdfce59,"4.60Ξ ($4,681)","Jan 05, 2021",4.6,4681,2021-01-05
8436,Sold,NeonNFT,lazyjack,"4.25Ξ ($1,485)","Oct 09, 2020",4.25,1485,2020-10-09
8436,Sold,Party,NeonNFT,"4.25Ξ ($1,491)","Oct 08, 2020",4.25,1491,2020-10-08
8436,Sold,Lmao,Party,"3.52Ξ ($1,236)","Oct 08, 2020",3.52,1236,2020-10-08
8436,Sold,223332,Lmao,"5.80Ξ ($2,110)","Sep 28, 2020",5.8,2110,2020-09-28
8436,Sold,0x5e7ee9,223332,"4Ξ ($1,431)","Sep 28, 2020",4,1431,2020-09-28
8436,Sold,0xf4239e,0x5e7ee9,"3.75Ξ ($1,290)","Sep 25, 2020",3.75,1290,2020-09-25
8436,Sold,0xe4c479,0xf4239e,"3.50Ξ ($1,210)","Sep 24, 2020",3.5,1210,2020-09-24
8436,Sold,Hemba,0xe4c479,"3.25Ξ ($1,236)","Sep 20, 2020",3.25,1236,2020-09-20
8437,Sold,8533182,9797400,0.10Ξ ($38),"Apr 07, 2018",0.1,38,2018-04-07
8438,Sold,0x422fac,0x50664e,"25Ξ ($42,371)","Feb 23, 2021",25,42371,2021-02-23
8438,Sold,0xe4c479,0xe5e771,"3.50Ξ ($1,228)","Sep 26, 2020",3.5,1228,2020-09-26
8438,Sold,Hemba,0xe4c479,"3.25Ξ ($1,236)","Sep 20, 2020",3.25,1236,2020-09-20
8440,Sold,Pranksy,0x75bb8e,"65Ξ ($115,641)","Feb 22, 2021",65,115641,2021-02-22
8440,Sold,0xca8fe4,Pranksy,"13.50Ξ ($19,335)","Feb 02, 2021",13.5,19335,2021-02-02
8442,Sold,11976269,Kataster…,0.79Ξ ($181),"Jun 26, 2020",0.79,181,2020-06-26
8444,Sold,0x62bdc6,0x4f63c2,"17.50Ξ ($31,537)","Mar 11, 2021",17.5,31537,2021-03-11
8444,Sold,0xaae8c5,0x62bdc6,"16.99Ξ ($30,223)","Mar 11, 2021",16.99,30223,2021-03-11
8444,Sold,Carlini8,0x568cf5,"5.80Ξ ($2,076)","Sep 29, 2020",5.8,2076,2020-09-29
8444,Sold,GoWest23,Carlini8,"5.55Ξ ($1,969)","Sep 29, 2020",5.55,1969,2020-09-29
8444,Sold,0xe45df5,GoWest23,0.50Ξ ($67),"Jan 04, 2020",0.5,67,2020-01-04
8445,Sold,0xddfdcb,284138,"80.88Ξ ($136,893)","Mar 23, 2021",80.88,136893,2021-03-23
8445,Sold,0xfba169,14548427,"60Ξ ($80,963)","Feb 28, 2021",60,80963,2021-02-28
8446,Sold,7293485,2888518,"24Ξ ($46,327)","Mar 13, 2021",24,46327,2021-03-13
8448,Sold,7293485,14475417,"7.00Ξ ($12,623)","Feb 13, 2021",7,12623,2021-02-13
8449,Sold,14530495,16316282,"19.99Ξ ($35,819)","Mar 08, 2021",19.99,35819,2021-03-08
8449,Sold,7293485,14530495,"25.75Ξ ($40,441)","Mar 02, 2021",25.75,40441,2021-03-02
8451,Sold,7293485,14466930,"14.40Ξ ($27,626)","Feb 18, 2021",14.4,27626,2021-02-18
8453,Sold,755965,8852783,"16Ξ ($33,693)","Apr 05, 2021",16,33693,2021-04-05
8454,Sold,6689278,10365834,"32Ξ ($57,863)","Mar 12, 2021",32,57863,2021-03-12
8455,Sold,0x8d3eea,Slider92,1.90Ξ ($780),"Sep 03, 2020",1.9,780,2020-09-03
8455,Sold,Hemba,0x8d3eea,0.13Ξ ($49),"Apr 04, 2018",0.13,49,2018-04-04
8456,Sold,0x74be0a,0x1424d2,"20.99Ξ ($43,291)","Apr 09, 2021",20.99,43291,2021-04-09
8456,Sold,CryptoIn…,0x74be0a,"16.99Ξ ($33,098)","Feb 21, 2021",16.99,33098,2021-02-21
8456,Sold,Hemba,CryptoIn…,1.50Ξ ($302),"May 22, 2020",1.5,302,2020-05-22
8457,Sold,0x033ee7,tonyherr…,"4.67Ξ ($5,790)","Jan 23, 2021",4.67,5790,2021-01-23
8457,Sold,0xe4c479,0x033ee7,"2.90Ξ ($1,031)","Sep 26, 2020",2.9,1031,2020-09-26
8457,Sold,Hemba,0xe4c479,2.50Ξ ($951),"Sep 20, 2020",2.5,951,2020-09-20
8458,Sold,jmg,0x0a4eaf…,0.19Ξ ($47),"Sep 21, 2018",0.19,47,2018-09-21
8458,Sold,Hemba,jmg,0.06Ξ ($47),"May 06, 2018",0.06,47,2018-05-06
8463,Sold,7293485,5269070,"27Ξ ($43,445)","Feb 23, 2021",27,43445,2021-02-23
8464,Sold,0xbdf2c8,12989769,"25Ξ ($43,570)","Mar 13, 2021",25,43570,2021-03-13
8464,Sold,0x48db19,12448456,"25Ξ ($38,502)","Mar 01, 2021",25,38502,2021-03-01
8465,Sold,Hemba,0x7e5280,0.27Ξ ($127),"Nov 26, 2017",0.27,127,2017-11-26
8468,Sold,13860731,4921127,"33.99Ξ ($72,612)","Apr 11, 2021",33.99,72612,2021-04-11
8468,Sold,10288454,13860731,"25Ξ ($41,665)","Mar 26, 2021",25,41665,2021-03-26
8468,Sold,13275108,10288454,"30Ξ ($54,998)","Mar 20, 2021",30,54998,2021-03-20
8469,Sold,13275108,15462875,"34.99Ξ ($63,531)","Mar 19, 2021",34.99,63531,2021-03-19
8472,Sold,Snowfro,0xb1adce,"130Ξ ($224,930)","Feb 11, 2021",130,224930,2021-02-11
8475,Sold,renaissa…,0x0e6167,"16.68Ξ ($32,908)","Feb 21, 2021",16.68,32908,2021-02-21
8475,Sold,0x8f6b1e,renaissa…,"13.68Ξ ($26,459)","Feb 21, 2021",13.68,26459,2021-02-21
8475,Sold,ross_VRO…,0xd84e80,"5.98Ξ ($10,703)","Feb 11, 2021",5.98,10703,2021-02-11
8475,Sold,0x645a88,ross_VRO…,"4.98Ξ ($6,160)","Jan 27, 2021",4.98,6160,2021-01-27
8475,Sold,0x00d7c9,0x4710ad,0.05Ξ ($26),"May 28, 2018",0.05,26,2018-05-28
8476,Sold,0x5e7ee9,gaus,2.70Ξ ($942),"Sep 25, 2020",2.7,942,2020-09-25
8476,Sold,0x86126b,0x5e7ee9,2.20Ξ ($761),"Sep 24, 2020",2.2,761,2020-09-24
8476,Sold,Hemba,0x86126b,1.80Ξ ($667),"Sep 20, 2020",1.8,667,2020-09-20
8477,Sold,Cyborg,0x7a341c,0.20Ξ ($57),"Jul 02, 2017",0.2,57,2017-07-02
8478,Sold,12743405,8294469,"28Ξ ($52,580)","Feb 22, 2021",28,52580,2021-02-22
8479,Sold,renaissa…,0x23b50b,"35Ξ ($63,255)","Mar 12, 2021",35,63255,2021-03-12
8479,Sold,0x84c920,renaissa…,"34Ξ ($51,965)","Feb 23, 2021",34,51965,2021-02-23
8479,Sold,shilpixe…,0x84c920,"19.99Ξ ($39,196)","Feb 21, 2021",19.99,39196,2021-02-21
8485,Sold,0x84c920,sumrtime…,"21Ξ ($33,815)","Mar 06, 2021",21,33815,2021-03-06
8485,Sold,EliteCat…,0x84c920,"27.49Ξ ($42,239)","Mar 06, 2021",27.49,42239,2021-03-06
8485,Sold,0x000c1c…,GoWest23,0.50Ξ ($87),"May 06, 2019",0.5,87,2019-05-06
8487,Sold,55241,PB,0.70Ξ ($122),"Apr 20, 2019",0.7,122,2019-04-20
8488,Sold,0xd71a41,azkaban,"4.50Ξ ($5,821)","Jan 10, 2021",4.5,5821,2021-01-10
8488,Sold,0x8f3546,0xd71a41,"3.50Ξ ($1,939)","Nov 22, 2020",3.5,1939,2020-11-22
8488,Sold,0xcEd199…,0x8f3546,0.27Ξ ($31),"Dec 20, 2018",0.27,31,2018-12-20
8488,Sold,0xc00c2b,0xcEd199…,0.32Ξ ($65),"Jul 26, 2017",0.32,65,2017-07-26
8489,Sold,heeee.et…,0x38a161,"28Ξ ($52,233)","Mar 14, 2021",28,52233,2021-03-14
8489,Sold,0x19f233,heeee.et…,"15Ξ ($29,045)","Feb 18, 2021",15,29045,2021-02-18
8490,Sold,6373D,0x11c9a7,"3.15Ξ ($1,878)","Dec 05, 2020",3.15,1878,2020-12-05
8490,Sold,Loopify,6373D,"2.40Ξ ($1,452)","Nov 24, 2020",2.4,1452,2020-11-24
8490,Sold,redlione…,Loopify,"4.89Ξ ($1,722)","Oct 06, 2020",4.89,1722,2020-10-06
8490,Sold,0xb6be4d,redlione…,"5.49Ξ ($1,925)","Oct 03, 2020",5.49,1925,2020-10-03
8491,Sold,0x19f233,CPyrc,"19Ξ ($36,348)","Feb 18, 2021",19,36348,2021-02-18
8492,Sold,12670457,4595575,"12.99Ξ ($26,289)","Feb 20, 2021",12.99,26289,2021-02-20
8492,Sold,52816,12670457,"11Ξ ($21,544)","Feb 19, 2021",11,21544,2021-02-19
8494,Sold,0xb6be4d,qiwave,0.79Ξ ($178),"Jun 28, 2020",0.79,178,2020-06-28
8495,Sold,aviexkak…,0x024bcb,"15Ξ ($29,863)","Feb 20, 2021",15,29863,2021-02-20
8495,Sold,moderats,0x7a37a1,"4Ξ ($4,176)","Jan 05, 2021",4,4176,2021-01-05
8495,Sold,Pranksy,moderats,2.50Ξ ($933),"Sep 14, 2020",2.5,933,2020-09-14
8495,Sold,CPyrc,Pranksy,1.89Ξ ($712),"Sep 14, 2020",1.89,712,2020-09-14
8495,Sold,0x20e386,CPyrc,1.20Ξ ($465),"Sep 13, 2020",1.2,465,2020-09-13
8497,Sold,5734076,1457888,"21.49Ξ ($38,807)","Mar 11, 2021",21.49,38807,2021-03-11
8498,Sold,jmg,snowfro,"3.99Ξ ($5,424)","Jan 14, 2018",3.99,5424,2018-01-14
8498,Sold,test123.…,0x00bd3a,5Ξ ($953),"Jul 11, 2017",5,953,2017-07-11
8503,Sold,1742511,Lumberg,1.39Ξ ($287),"May 27, 2020",1.39,287,2020-05-27
8504,Sold,1355393,15693900,"24Ξ ($43,514)","Mar 12, 2021",24,43514,2021-03-12
8504,Sold,328685,3958417,"11.50Ξ ($20,112)","Feb 16, 2021",11.5,20112,2021-02-16
8504,Sold,509418,328685,"9.75Ξ ($17,404)","Feb 15, 2021",9.75,17404,2021-02-15
8504,Sold,14233651,509418,"8Ξ ($14,014)","Feb 15, 2021",8,14014,2021-02-15
8507,Sold,13358210,7435267,0.05Ξ ($14),"Jun 27, 2017",0.05,14,2017-06-27
8508,Sold,0xfc2a61,0xef784c,"22Ξ ($39,888)","Mar 12, 2021",22,39888,2021-03-12
8508,Sold,chifoomi,0xdac01f,"5.49Ξ ($9,433)","Feb 08, 2021",5.49,9433,2021-02-08
8508,Sold,parttty6,chifoomi,"5.20Ξ ($1,835)","Oct 05, 2020",5.2,1835,2020-10-05
8508,Sold,itsfine,parttty6,"4.90Ξ ($1,730)","Oct 05, 2020",4.9,1730,2020-10-05
8508,Sold,MrNFT,itsfine,"2.98Ξ ($1,052)","Sep 26, 2020",2.98,1052,2020-09-26
8508,Sold,Pranksy,MrNFT,2.75Ξ ($948),"Sep 25, 2020",2.75,948,2020-09-25
8508,Sold,0x5aaeb9,Pranksy,2.29Ξ ($792),"Sep 24, 2020",2.29,792,2020-09-24
8508,Sold,redlione…,0x5aaeb9,2.19Ξ ($757),"Sep 24, 2020",2.19,757,2020-09-24
8508,Sold,0x9ce03d,redlione…,2.10Ξ ($725),"Sep 24, 2020",2.1,725,2020-09-24
8508,Sold,0xe754d1,0x9ce03d,2Ξ ($678),"Sep 23, 2020",2,678,2020-09-23
8508,Sold,OnlyToas…,0xe754d1,1.60Ξ ($610),"Sep 17, 2020",1.6,610,2020-09-17
8508,Sold,natealex,OnlyToas…,1.85Ξ ($671),"Sep 16, 2020",1.85,671,2020-09-16
8508,Sold,Hemba,natealex,1.20Ξ ($437),"Sep 11, 2020",1.2,437,2020-09-11
8509,Sold,0xe96c3e,0xc352b5,0.85Ξ ($192),"Feb 08, 2020",0.85,192,2020-02-08
8509,Sold,shilpixe…,el,0.22Ξ ($60),"Aug 26, 2018",0.22,60,2018-08-26
8510,Sold,13275108,14479911,"8.50Ξ ($14,620)","Feb 08, 2021",8.5,14620,2021-02-08
8511,Sold,Pranksy,0x20af8c,"34.99Ξ ($50,571)","Feb 28, 2021",34.99,50571,2021-02-28
8511,Sold,VonMises,ddaavvee,"18.50Ξ ($32,794)","Feb 10, 2021",18.5,32794,2021-02-10
8511,Sold,j1mmy,VonMises,2.75Ξ ($520),"Apr 23, 2020",2.75,520,2020-04-23
8511,Sold,0x470e9b,j1mmy,1.40Ξ ($246),"Apr 07, 2019",1.4,246,2019-04-07
8512,Sold,Pranksy,0xcf6165,"4.49Ξ ($2,886)","Dec 26, 2020",4.49,2886,2020-12-26
8512,Sold,Alex3422,kyloren,"5.70Ξ ($2,012)","Sep 29, 2020",5.7,2012,2020-09-29
8512,Sold,Carlini8,Alex3422,"5.25Ξ ($1,906)","Sep 28, 2020",5.25,1906,2020-09-28
8512,Sold,Pranksy,Carlini8,"4.99Ξ ($1,812)","Sep 28, 2020",4.99,1812,2020-09-28
8512,Sold,Carlini8,Pranksy,"3.99Ξ ($1,427)","Sep 28, 2020",3.99,1427,2020-09-28
8512,Sold,0xe4c479,Carlini8,"3.80Ξ ($1,355)","Sep 28, 2020",3.8,1355,2020-09-28
8512,Sold,0x067034,0xe4c479,"2.99Ξ ($1,137)","Sep 20, 2020",2.99,1137,2020-09-20
8512,Sold,Carlini8,0x067034,2.50Ξ ($946),"Sep 19, 2020",2.5,946,2020-09-19
8512,Sold,PM_disco…,Carlini8,1.90Ξ ($716),"Sep 14, 2020",1.9,716,2020-09-14
8512,Sold,0xb6be4d,PM_disco…,1.20Ξ ($276),"Jun 26, 2020",1.2,276,2020-06-26
8513,Sold,Debonair…,🤹🏻‍♂.e…,"18.25Ξ ($35,056)","Apr 01, 2021",18.25,35056,2021-04-01
8513,Sold,0x27c79a,Ravachol,0.52Ξ ($103),"Apr 27, 2020",0.52,103,2020-04-27
8513,Sold,Pranksy,0x27c79a,0.50Ξ ($72),"Jan 07, 2020",0.5,72,2020-01-07
8513,Sold,0x00d7c9,Pranksy,0.25Ξ ($45),"Sep 02, 2019",0.25,45,2019-09-02
8514,Sold,shilpixe…,0x516358,"14Ξ ($28,993)","Apr 05, 2021",14,28993,2021-04-05
8515,Sold,sighduck…,0x0ecd8a,"59Ξ ($100,269)","Mar 23, 2021",59,100269,2021-03-23
8515,Sold,0x6611fe,sighduck…,"53Ξ ($100,999)","Mar 14, 2021",53,100999,2021-03-14
8515,Sold,0x682c30,0x6611fe,0.39Ξ ($104),"Jul 06, 2017",0.39,104,2017-07-06
8516,Sold,11681926,10274288,"30Ξ ($54,079)","Feb 22, 2021",30,54079,2021-02-22
8516,Sold,5331586,6059058,0.41Ξ ($84),"Jul 10, 2017",0.41,84,2017-07-10
8517,Sold,ddaavvee,0x717403,0.25Ξ ($72),"Jun 27, 2017",0.25,72,2017-06-27
8518,Sold,0x561786,0x6396ef,"22Ξ ($37,692)","Feb 22, 2021",22,37692,2021-02-22
8518,Sold,0x19ac60,0x561786,"4.60Ξ ($5,017)","Jan 11, 2021",4.6,5017,2021-01-11
8519,Sold,0xa6e2e9,0xea1218,"21.99Ξ ($41,474)","Mar 15, 2021",21.99,41474,2021-03-15
8519,Sold,0xaae8c5,0xa6e2e9,"19.99Ξ ($29,476)","Mar 05, 2021",19.99,29476,2021-03-05
8519,Sold,0x0553de,0x568cf5,"5.98Ξ ($2,174)","Sep 28, 2020",5.98,2174,2020-09-28
8519,Sold,0xb6be4d,0x0553de,"4.90Ξ ($1,753)","Sep 28, 2020",4.9,1753,2020-09-28
8520,Sold,ddaavvee,0xc06dbd,"14Ξ ($22,926)","Feb 05, 2021",14,22926,2021-02-05
8521,Sold,14602955,14650138,0.50Ξ ($143),"Jun 27, 2017",0.5,143,2017-06-27
8523,Sold,Pranksy,0xa9c206,0.55Ξ ($96),"Sep 27, 2019",0.55,96,2019-09-27
8523,Sold,0x682c30,0xff8414,0.10Ξ ($32),"Jun 28, 2017",0.1,32,2017-06-28
8524,Sold,6827056,6689278,0.35Ξ ($84),"Jul 07, 2017",0.35,84,2017-07-07
8526,Sold,644104,10288209,"24.99Ξ ($51,795)","Apr 09, 2021",24.99,51795,2021-04-09
8526,Sold,11681926,644104,"20Ξ ($39,458)","Feb 21, 2021",20,39458,2021-02-21
8526,Sold,14215174,6059058,0.25Ξ ($87),"Aug 28, 2017",0.25,87,2017-08-28
8526,Sold,48442,14215174,0.49Ξ ($93),"Jul 11, 2017",0.49,93,2017-07-11
8526,Sold,6827056,48442,0.10Ξ ($32),"Jun 28, 2017",0.1,32,2017-06-28
8527,Sold,6827056,0x00bd3a,0.10Ξ ($32),"Jun 28, 2017",0.1,32,2017-06-28
8528,Sold,PM_disco…,0x274a8b,2.25Ξ ($833),"Sep 12, 2020",2.25,833,2020-09-12
8528,Sold,0xb6be4d,PM_disco…,0.95Ξ ($214),"Jun 27, 2020",0.95,214,2020-06-27
8530,Sold,ddaavvee,0x701f37,"24Ξ ($41,283)","Feb 15, 2021",24,41283,2021-02-15
8533,Sold,6827056,233759,0.49Ξ ($371),"Jan 01, 2018",0.49,371,2018-01-01
8534,Sold,0xf1b658,pelvis.e…,"17Ξ ($32,363)","Feb 19, 2021",17,32363,2021-02-19
8534,Sold,0xb05b7d,0xf1b658,"15Ξ ($27,066)","Feb 14, 2021",15,27066,2021-02-14
8536,Sold,0x27c79a,0x98c488,0.73Ξ ($147),"May 17, 2020",0.73,147,2020-05-17
8536,Sold,Tschuuul…,0x27c79a,0.50Ξ ($72),"Jan 07, 2020",0.5,72,2020-01-07
8536,Sold,juggerna…,Tschuuul…,0.25Ξ ($45),"Oct 13, 2019",0.25,45,2019-10-13
8540,Sold,0xd69e74,0x8a3d2e,"18.80Ξ ($38,927)","Apr 08, 2021",18.8,38927,2021-04-08
8540,Sold,0x491be7,0xd69e74,"20Ξ ($38,499)","Feb 21, 2021",20,38499,2021-02-21
8540,Sold,0x13816f,0x491be7,"5.56Ξ ($1,980)","Sep 29, 2020",5.56,1980,2020-09-29
8540,Sold,MrTpunks…,0x13816f,"2.85Ξ ($1,004)","Sep 26, 2020",2.85,1004,2020-09-26
8540,Sold,Pranksy,MrTpunks…,2.49Ξ ($862),"Sep 24, 2020",2.49,862,2020-09-24
8540,Sold,TJ2010,Pranksy,2.22Ξ ($726),"Sep 24, 2020",2.22,726,2020-09-24
8540,Sold,0x3a8441,TJ2010,0.89Ξ ($296),"Sep 07, 2020",0.89,296,2020-09-07
8542,Sold,0xb6be4d,3648885,0.79Ξ ($183),"Jun 26, 2020",0.79,183,2020-06-26
8543,Sold,Hemba,0xcd2c66,1Ξ ($400),"Aug 04, 2020",1,400,2020-08-04
8544,Sold,0xf1b658,azkaban,"4Ξ ($4,943)","Jan 18, 2021",4,4943,2021-01-18
8544,Sold,0xb6be4d,0x5b331e,"4.65Ξ ($5,676)","Jan 08, 2021",4.65,5676,2021-01-08
8546,Sold,5734076,4763435,"49.99Ξ ($89,241)","Mar 15, 2021",49.99,89241,2021-03-15
8547,Sold,0x577ebc,pelvis.e…,"11Ξ ($19,138)","Feb 17, 2021",11,19138,2021-02-17
8549,Sold,55241,393680,0.50Ξ ($134),"Jul 13, 2019",0.5,134,2019-07-13
8550,Sold,0x00ce50,12447476,"27.50Ξ ($52,549)","Feb 19, 2021",27.5,52549,2021-02-19
8552,Sold,6689278,16740588,"44Ξ ($84,388)","Apr 01, 2021",44,84388,2021-04-01
8556,Sold,Pixls,Snowfro,0.72Ξ ($115),"Feb 23, 2019",0.72,115,2019-02-23
8556,Sold,0xe45df5,Pixls,0.25Ξ ($22),"Dec 13, 2018",0.25,22,2018-12-13
8562,Sold,0xf1b658,0x3e17fa,"37Ξ ($45,577)","Jan 24, 2021",37,45577,2021-01-24
8562,Sold,EliteCat…,0x5b331e,"30Ξ ($38,116)","Jan 16, 2021",30,38116,2021-01-16
8562,Sold,0x0553de,GoWest23,2.49Ξ ($414),"Apr 06, 2019",2.49,414,2019-04-06
8562,Sold,jmg,0x0553de,1.39Ξ ($174),"Jan 19, 2019",1.39,174,2019-01-19
8562,Sold,Cyborg,jmg,0.55Ξ ($124),"Oct 06, 2018",0.55,124,2018-10-06
8562,Sold,0x8ba3e2,Cyborg,0.18Ξ ($53),"Sep 29, 2017",0.18,53,2017-09-29
8564,Sold,0x5f18f9,0x4c9692,"25Ξ ($52,509)","Apr 05, 2021",25,52509,2021-04-05
8567,Sold,0xca8fe4,misu.eth,"19.99Ξ ($41,257)","Apr 08, 2021",19.99,41257,2021-04-08
8569,Sold,5657750,15693900,"40Ξ ($72,059)","Mar 11, 2021",40,72059,2021-03-11
8569,Sold,13275108,5657750,"34.99Ξ ($51,328)","Mar 05, 2021",34.99,51328,2021-03-05
8571,Sold,NFTinTin,0x656546,"29.99Ξ ($56,233)","Feb 22, 2021",29.99,56233,2021-02-22
8571,Sold,0x7d705d,NFTinTin,0.57Ξ ($129),"Feb 08, 2020",0.57,129,2020-02-08
8571,Sold,0x6611fe,0x7d705d,0.55Ξ ($73),"Jan 04, 2020",0.55,73,2020-01-04
8573,Sold,6689278,5700683,"22Ξ ($37,579)","Feb 22, 2021",22,37579,2021-02-22
8574,Sold,13275108,4171876,"39.50Ξ ($71,000)","Mar 18, 2021",39.5,71000,2021-03-18
8575,Sold,MadMax,0xf1d2d8,"15.75Ξ ($27,324)","Feb 16, 2021",15.75,27324,2021-02-16
8575,Sold,0x577ebc,MadMax,"9.50Ξ ($17,264)","Feb 14, 2021",9.5,17264,2021-02-14
8576,Sold,EliteCat…,beautifu…,"98.99Ξ ($179,568)","Mar 20, 2021",98.99,179568,2021-03-20
8576,Sold,sov,GoWest23,"7Ξ ($1,408)","May 16, 2020",7,1408,2020-05-16
8577,Sold,beautifu…,0x8ee483,"59.99Ξ ($124,877)","Apr 09, 2021",59.99,124877,2021-04-09
8577,Sold,0x5f18f9,beautifu…,"37Ξ ($77,645)","Apr 05, 2021",37,77645,2021-04-05
8582,Sold,0x6611fe,967496,"35.50Ξ ($76,214)","Apr 11, 2021",35.5,76214,2021-04-11
8583,Sold,OnlyToas…,0xce0b4b,"16.99Ξ ($32,466)","Feb 19, 2021",16.99,32466,2021-02-19
8583,Sold,0x491be7,OnlyToas…,"14.88Ξ ($27,463)","Feb 17, 2021",14.88,27463,2021-02-17
8583,Sold,Pranksy,0x491be7,"6Ξ ($2,113)","Oct 04, 2020",6,2113,2020-10-04
8583,Sold,KittyGr_…,Pranksy,"4.80Ξ ($1,689)","Oct 04, 2020",4.8,1689,2020-10-04
8583,Sold,0x00d7c9,KittyGr_…,0.10Ξ ($60),"Jun 08, 2018",0.1,60,2018-06-08
8584,Sold,Pranksy,7478,1Ξ ($163),"Jan 16, 2020",1,163,2020-01-16
8584,Sold,0x00d7c9,Sylveste…,0.50Ξ ($85),"May 09, 2019",0.5,85,2019-05-09
8586,Sold,0xcded7e,0x9747d4,"16.25Ξ ($31,039)","Mar 31, 2021",16.25,31039,2021-03-31
8586,Sold,0x8e564e,0xcded7e,"17.50Ξ ($32,171)","Mar 30, 2021",17.5,32171,2021-03-30
8586,Sold,0xb9fba8,0x8e564e,"19Ξ ($32,076)","Mar 28, 2021",19,32076,2021-03-28
8586,Sold,0x7d9e9a,0xb9fba8,"20.25Ξ ($34,164)","Mar 27, 2021",20.25,34164,2021-03-27
8586,Sold,0x6fcade,0x7d9e9a,"19.70Ξ ($32,743)","Mar 26, 2021",19.7,32743,2021-03-26
8586,Sold,Korniej,0x568cf5,"5.90Ξ ($2,112)","Sep 29, 2020",5.9,2112,2020-09-29
8586,Sold,MrNFT,Korniej,1.99Ξ ($735),"Sep 20, 2020",1.99,735,2020-09-20
8586,Sold,Pranksy,MrNFT,1.78Ξ ($678),"Sep 20, 2020",1.78,678,2020-09-20
8586,Sold,VonMises,Pranksy,1.75Ξ ($659),"Sep 14, 2020",1.75,659,2020-09-14
8586,Sold,0x6f1724,VonMises,1Ξ ($210),"May 24, 2020",1,210,2020-05-24
8586,Sold,0x00d7c9,0x6f1724,0.10Ξ ($27),"Aug 22, 2018",0.1,27,2018-08-22
8587,Sold,16058782,15242351,0.23Ξ ($73),"Aug 23, 2017",0.23,73,2017-08-23
8587,Sold,1205785,10528156,0.08Ξ ($16),"Jul 14, 2017",0.08,16,2017-07-14
8591,Sold,0x13816f,0xae7721,"9.25Ξ ($16,154)","Feb 17, 2021",9.25,16154,2021-02-17
8591,Sold,Carlini8,0x13816f,"5.50Ξ ($1,963)","Sep 30, 2020",5.5,1963,2020-09-30
8591,Sold,GoWest23,Carlini8,"5.85Ξ ($2,093)","Sep 29, 2020",5.85,2093,2020-09-29
8591,Sold,0x20e386,GoWest23,1.20Ξ ($465),"Sep 13, 2020",1.2,465,2020-09-13
8593,Sold,0x97db27,11599876,"79.99Ξ ($152,433)","Mar 14, 2021",79.99,152433,2021-03-14
8593,Sold,0xf1b658,9952039,"30Ξ ($57,612)","Feb 19, 2021",30,57612,2021-02-19
8593,Sold,0xca8fe4,15840856,"18.50Ξ ($32,181)","Feb 10, 2021",18.5,32181,2021-02-10
8595,Sold,12586027,6689278,0.65Ξ ($134),"Jul 13, 2017",0.65,134,2017-07-13
8598,Sold,55241,6857052,0.10Ξ ($37),"Nov 20, 2017",0.1,37,2017-11-20
8600,Sold,11844417,7709317,"23.48Ξ ($41,716)","Mar 21, 2021",23.48,41716,2021-03-21
8600,Sold,3563061,11844417,"22Ξ ($37,230)","Feb 24, 2021",22,37230,2021-02-24
8601,Sold,11844417,10422287,"28.99Ξ ($45,110)","Mar 01, 2021",28.99,45110,2021-03-01
8601,Sold,3563061,11844417,"24Ξ ($40,614)","Feb 24, 2021",24,40614,2021-02-24
8602,Sold,11268359,337252,"19Ξ ($39,610)","Apr 09, 2021",19,39610,2021-04-09
8602,Sold,11844417,11268359,"18.99Ξ ($39,253)","Apr 08, 2021",18.99,39253,2021-04-08
8602,Sold,3563061,11844417,"21.50Ξ ($36,384)","Feb 24, 2021",21.5,36384,2021-02-24
8603,Sold,12189147,3440734,"30Ξ ($63,670)","Apr 11, 2021",30,63670,2021-04-11
8603,Sold,3563061,12189147,"30Ξ ($49,039)","Feb 24, 2021",30,49039,2021-02-24
8604,Sold,6888327,15303826,"21.98Ξ ($39,535)","Mar 15, 2021",21.98,39535,2021-03-15
8604,Sold,3563061,6888327,"19Ξ ($32,153)","Feb 24, 2021",19,32153,2021-02-24
8605,Sold,3563061,11844417,"27.50Ξ ($45,997)","Feb 24, 2021",27.5,45997,2021-02-24
8606,Sold,0x596572,11888085,"35.50Ξ ($59,399)","Mar 24, 2021",35.5,59399,2021-03-24
8606,Sold,0x365e35,5858674,"42Ξ ($68,688)","Feb 24, 2021",42,68688,2021-02-24
8607,Sold,0x577ebc,8193135,"22.50Ξ ($33,390)","Mar 02, 2021",22.5,33390,2021-03-02
8608,Sold,0xca8fe4,jmg,"8Ξ ($13,432)","Feb 04, 2021",8,13432,2021-02-04
8609,Sold,shilpixe…,17MILE,1Ξ ($203),"May 22, 2020",1,203,2020-05-22
8611,Sold,0x5deedc,frenetik…,"17.75Ξ ($31,743)","Mar 30, 2021",17.75,31743,2021-03-30
8611,Sold,0xf9cba7,0x5deedc,"17Ξ ($28,861)","Mar 28, 2021",17,28861,2021-03-28
8611,Sold,0x691b87,0xf9cba7,"22.25Ξ ($34,042)","Mar 04, 2021",22.25,34042,2021-03-04
8611,Sold,0x365e35,0x691b87,"18.50Ξ ($31,307)","Feb 24, 2021",18.5,31307,2021-02-24
8612,Sold,3563061,11844417,"25Ξ ($40,886)","Feb 24, 2021",25,40886,2021-02-24
8613,Sold,0xb9fddb,461847,"25Ξ ($51,943)","Apr 08, 2021",25,51943,2021-04-08
8613,Sold,0x365e35,12189147,"25Ξ ($40,866)","Feb 24, 2021",25,40866,2021-02-24
8616,Sold,0xe45df5,OcramPel…,0.70Ξ ($118),"Jan 22, 2020",0.7,118,2020-01-22
8617,Sold,0xc05488,5333869,"145Ξ ($261,821)","Mar 21, 2021",145,261821,2021-03-21
8617,Sold,0xb4bb41,12604552,"109.99Ξ ($199,399)","Mar 12, 2021",109.99,199399,2021-03-12
8617,Sold,0x365e35,11844417,"80Ξ ($130,834)","Feb 24, 2021",80,130834,2021-02-24
8620,Sold,0xa68665,0xf4b4a5,"165Ξ ($307,953)","Mar 14, 2021",165,307953,2021-03-14
8620,Sold,Pranksy,0xa68665,"110Ξ ($166,458)","Feb 27, 2021",110,166458,2021-02-27
8620,Sold,0x365e35,Pranksy,"80Ξ ($133,809)","Feb 24, 2021",80,133809,2021-02-24
8622,Sold,14530495,14548427,"19.99Ξ ($41,770)","Apr 06, 2021",19.99,41770,2021-04-06
8622,Sold,5734076,14530495,"28.50Ξ ($43,893)","Mar 01, 2021",28.5,43893,2021-03-01
8623,Sold,5734076,6507194,"24.49Ξ ($52,513)","Apr 10, 2021",24.49,52513,2021-04-10
8630,Sold,Hemba,0x7e5280,0.25Ξ ($118),"Nov 26, 2017",0.25,118,2017-11-26
8630,Sold,0x682c30,Hemba,0.19Ξ ($56),"Jun 29, 2017",0.19,56,2017-06-29
8631,Sold,0xb38071,7435267,0.05Ξ ($13),"Jul 01, 2017",0.05,13,2017-07-01
8634,Sold,0x62bdc6,8950323,"18.99Ξ ($32,429)","Mar 27, 2021",18.99,32429,2021-03-27
8634,Sold,0xca8fe4,6471110,"16Ξ ($26,974)","Mar 27, 2021",16,26974,2021-03-27
8635,Sold,0x565496,0x20af8c,"30Ξ ($53,281)","Feb 22, 2021",30,53281,2021-02-22
8635,Sold,MadMax,0x565496,"6.95Ξ ($7,756)","Jan 12, 2021",6.95,7756,2021-01-12
8635,Sold,0x34e801,MadMax,"6.25Ξ ($6,844)","Jan 05, 2021",6.25,6844,2021-01-05
8635,Sold,KittyGr_…,Michel_M…,"6.50Ξ ($2,299)","Oct 05, 2020",6.5,2299,2020-10-05
8635,Sold,0xd8e806,KittyGr_…,0.25Ξ ($150),"Jun 08, 2018",0.25,150,2018-06-08
8635,Sold,0x682c30,0xd8e806,0.39Ξ ($74),"Jul 11, 2017",0.39,74,2017-07-11
8639,Sold,0x910b41,553331,"17.86Ξ ($24,177)","Jan 24, 2021",17.86,24177,2021-01-24
8639,Sold,0xca8fe4,9505601,"12.50Ξ ($12,671)","Jan 04, 2021",12.5,12671,2021-01-04
8640,Sold,0x00d7c9,snowfro,0.05Ξ ($27),"Jun 11, 2018",0.05,27,2018-06-11
8641,Sold,0xcded7e,0x3e1e5d,"20Ξ ($43,007)","Apr 11, 2021",20,43007,2021-04-11
8641,Sold,0x561786,0x336caf,"22Ξ ($40,846)","Feb 22, 2021",22,40846,2021-02-22
8641,Sold,0xca8fe4,0x561786,"4.80Ξ ($6,148)","Jan 10, 2021",4.8,6148,2021-01-10
8644,Sold,renaissa…,0x0e6167,"15.70Ξ ($30,975)","Feb 21, 2021",15.7,30975,2021-02-21
8644,Sold,0x6f4a2d,renaissa…,"9.50Ξ ($17,240)","Feb 17, 2021",9.5,17240,2021-02-17
8646,Sold,5331586,45688,0.32Ξ ($86),"Jul 04, 2017",0.32,86,2017-07-04
8649,Sold,1742511,Bluetip2…,0.57Ξ ($122),"May 02, 2020",0.57,122,2020-05-02
8651,Sold,0x577ebc,15693900,"40Ξ ($73,438)","Mar 10, 2021",40,73438,2021-03-10
8653,Sold,6689278,14550785,"6.56Ξ ($12,009)","Feb 13, 2021",6.56,12009,2021-02-13
8655,Sold,0xbf6ccf,0xedb7f3,"4.90Ξ ($4,998)","Jan 13, 2021",4.9,4998,2021-01-13
8655,Sold,wolong,0xbf6ccf,"3.25Ξ ($2,035)","Dec 22, 2020",3.25,2035,2020-12-22
8655,Sold,0xb6be4d,wolong,"2.96Ξ ($1,007)","Sep 25, 2020",2.96,1007,2020-09-25
8656,Sold,0x033ee7,ross_VRO…,"13.81Ξ ($26,869)","Feb 19, 2021",13.81,26869,2021-02-19
8656,Sold,scalynel…,0x033ee7,"2.99Ξ ($1,034)","Sep 24, 2020",2.99,1034,2020-09-24
8656,Sold,0xb6be4d,scalynel…,1.10Ξ ($255),"Jun 25, 2020",1.1,255,2020-06-25
8658,Sold,0xb9e025,Deeze,"37Ξ ($56,875)","Mar 01, 2021",37,56875,2021-03-01
8658,Sold,0xca8fe4,0x38fd1f,"24.99Ξ ($45,092)","Feb 14, 2021",24.99,45092,2021-02-14
8659,Sold,0x13816f,0x20af8c,"18.88Ξ ($36,145)","Feb 19, 2021",18.88,36145,2021-02-19
8659,Sold,coinduph…,0x13816f,"6.12Ξ ($2,074)","Oct 07, 2020",6.12,2074,2020-10-07
8659,Sold,Dude_Nak…,coinduph…,0.10Ξ ($62),"Apr 20, 2018",0.1,62,2018-04-20
8659,Sold,0x8234be,Dude_Nak…,0.10Ξ ($54),"Mar 18, 2018",0.1,54,2018-03-18
8662,Sold,0xe4c479,0x_NFT,"3.50Ξ ($1,206)","Sep 25, 2020",3.5,1206,2020-09-25
8662,Sold,Hemba,0xe4c479,"3.25Ξ ($1,236)","Sep 20, 2020",3.25,1236,2020-09-20
8665,Sold,9933326,0x9493c4,"25Ξ ($41,530)","Mar 07, 2021",25,41530,2021-03-07
8665,Sold,7293485,0x97920e,"23Ξ ($44,086)","Feb 22, 2021",23,44086,2021-02-22
8666,Sold,212711,6689278,"14.78Ξ ($28,854)","Feb 21, 2021",14.78,28854,2021-02-21
8666,Sold,11976269,212711,"2.96Ξ ($1,052)","Sep 26, 2020",2.96,1052,2020-09-26
8666,Sold,223332,11976269,0.85Ξ ($332),"Aug 23, 2020",0.85,332,2020-08-23
8666,Sold,11976269,223332,0.79Ξ ($183),"Jun 26, 2020",0.79,183,2020-06-26
8667,Sold,0x5d7863,Ouroboro…,2.50Ξ ($878),"Sep 24, 2020",2.5,878,2020-09-24
8667,Sold,0x11c9a7,0x5d7863,2.19Ξ ($706),"Sep 23, 2020",2.19,706,2020-09-23
8667,Sold,Pranksy,0x11c9a7,1.99Ξ ($674),"Sep 23, 2020",1.99,674,2020-09-23
8667,Sold,juggerna…,alxo,0.25Ξ ($38),"Nov 23, 2019",0.25,38,2019-11-23
8671,Sold,NeonNFT,0x491be7,"5.09Ξ ($1,792)","Oct 05, 2020",5.09,1792,2020-10-05
8671,Sold,0xb6be4d,NeonNFT,"5Ξ ($1,742)","Oct 04, 2020",5,1742,2020-10-04
8672,Sold,0x0e4437,0xcfd9cc,"49Ξ ($78,877)","Mar 03, 2021",49,78877,2021-03-03
8672,Sold,TweetyPi…,0x0e4437,"21Ξ ($37,120)","Feb 11, 2021",21,37120,2021-02-11
8672,Sold,0x577ebc,TweetyPi…,"20Ξ ($28,661)","Feb 02, 2021",20,28661,2021-02-02
8673,Sold,Cyborg,0x9e199d,0.23Ξ ($197),"Mar 02, 2018",0.23,197,2018-03-02
8673,Sold,0x5b098b,Cyborg,0.13Ξ ($38),"Jun 29, 2017",0.13,38,2017-06-29
8674,Sold,0x00d7c9,0x0a4eaf…,0.26Ξ ($83),"Aug 23, 2017",0.26,83,2017-08-23
8676,Sold,0x51357b,derspook…,"5.95Ξ ($2,210)","Oct 21, 2020",5.95,2210,2020-10-21
8676,Sold,Novo311,0x51357b,1.98Ξ ($727),"Sep 11, 2020",1.98,727,2020-09-11
8676,Sold,0x0553de,Novo311,1.48Ξ ($312),"May 23, 2020",1.48,312,2020-05-23
8676,Sold,0x00d7c9,0x0553de,0.40Ξ ($84),"Aug 09, 2019",0.4,84,2019-08-09
8677,Sold,shilpixe…,NFTinTin,0.45Ξ ($68),"Jan 09, 2019",0.45,68,2019-01-09
8680,Sold,5734076,1145966,"36.99Ξ ($71,402)","Mar 14, 2021",36.99,71402,2021-03-14
8681,Sold,cryptosa…,ArtBlock…,1Ξ ($246),"Jun 10, 2020",1,246,2020-06-10
8681,Sold,0x470e9b,cryptosa…,1Ξ ($203),"May 22, 2020",1,203,2020-05-22
8682,Sold,0x0ec629,0x0ec348,"23.99Ξ ($49,752)","Apr 09, 2021",23.99,49752,2021-04-09
8682,Sold,0xfc2a61,0x0ec629,"23Ξ ($41,771)","Mar 12, 2021",23,41771,2021-03-12
8682,Sold,0x422fac,0x979a0c,"7.77Ξ ($14,120)","Feb 13, 2021",7.77,14120,2021-02-13
8682,Sold,Korniej,0xe5e771,2.50Ξ ($858),"Sep 23, 2020",2.5,858,2020-09-23
8682,Sold,0x5b098b,Korniej,2.19Ξ ($808),"Sep 20, 2020",2.19,808,2020-09-20
8686,Sold,0xca8fe4,3603416,"24.99Ξ ($44,882)","Feb 13, 2021",24.99,44882,2021-02-13
8687,Sold,CPyrc,0x060d19,"16Ξ ($31,146)","Feb 21, 2021",16,31146,2021-02-21
8687,Sold,0xb9c71d,CPyrc,"13Ξ ($24,079)","Feb 17, 2021",13,24079,2021-02-17
8687,Sold,0xe39e5d,0xb9c71d,"10Ξ ($17,398)","Feb 17, 2021",10,17398,2021-02-17
8687,Sold,Hemba,Shrugs,0.19Ξ ($53),"Aug 15, 2018",0.19,53,2018-08-15
8689,Sold,0xca8fe4,5091805,"22Ξ ($37,611)","Mar 28, 2021",22,37611,2021-03-28
8690,Sold,5331586,45688,0.30Ξ ($83),"Jul 03, 2017",0.3,83,2017-07-03
8692,Sold,0x6b88ac,4383048,0.45Ξ ($92),"Jul 25, 2017",0.45,92,2017-07-25
8692,Sold,0x682c30,7047340,0.25Ξ ($71),"Jul 02, 2017",0.25,71,2017-07-02
8693,Sold,6827056,3112815,0.99Ξ ($204),"Aug 10, 2019",0.99,204,2019-08-10
8694,Sold,astrober…,0x23f707,"24Ξ ($42,744)","Mar 22, 2021",24,42744,2021-03-22
8694,Sold,0x682c30,astrober…,"5.99Ξ ($2,185)","Sep 28, 2020",5.99,2185,2020-09-28
8695,Sold,6827056,45688,0.25Ξ ($69),"Jul 03, 2017",0.25,69,2017-07-03
8696,Sold,0xb2bd00,0xc5f312,"64Ξ ($125,346)","Feb 19, 2021",64,125346,2021-02-19
8696,Sold,0x72c783,0xb2bd00,"60Ξ ($115,505)","Feb 19, 2021",60,115505,2021-02-19
8696,Sold,0xd2c6db,0x72c783,"16Ξ ($28,053)","Feb 09, 2021",16,28053,2021-02-09
8696,Sold,Deeze,0xd2c6db,"15Ξ ($20,291)","Jan 26, 2021",15,20291,2021-01-26
8696,Sold,2pac,Deeze,"6.66Ξ ($8,000)","Jan 18, 2021",6.66,8000,2021-01-18
8696,Sold,MBK,2pac,"12.49Ξ ($7,831)","Dec 25, 2020",12.49,7831,2020-12-25
8696,Sold,Pranksy,MBK,"10Ξ ($3,520)","Oct 01, 2020",10,3520,2020-10-01
8696,Sold,GoWest23,Pranksy,"15Ξ ($5,190)","Sep 24, 2020",15,5190,2020-09-24
8696,Sold,shilpixe…,j1mmy,"6Ξ ($1,408)","Jun 02, 2020",6,1408,2020-06-02
8697,Sold,0x1d45f1,0xfcdca1,"44Ξ ($91,347)","Apr 09, 2021",44,91347,2021-04-09
8697,Sold,DANNY,0x1d45f1,"20Ξ ($6,901)","Sep 21, 2020",20,6901,2020-09-21
8697,Sold,scalynel…,DANNY,"5.50Ξ ($1,945)","Sep 06, 2020",5.5,1945,2020-09-06
8697,Sold,shilpixe…,scalynel…,3.50Ξ ($699),"May 16, 2020",3.5,699,2020-05-16
8698,Sold,55241,rssi.eth,0.05Ξ ($29),"May 31, 2018",0.05,29,2018-05-31
8702,Sold,Hemba,rssi.eth,0.10Ξ ($47),"Dec 04, 2017",0.1,47,2017-12-04
8703,Sold,0x13816f,0x577ebc,"9.88Ξ ($18,120)","Feb 17, 2021",9.88,18120,2021-02-17
8703,Sold,0x067034,0x13816f,"3.15Ξ ($1,114)","Sep 27, 2020",3.15,1114,2020-09-27
8703,Sold,Hemba,0x067034,1.80Ξ ($613),"Sep 22, 2020",1.8,613,2020-09-22
8705,Sold,0x13816f,0x1896d8,"9.25Ξ ($16,885)","Feb 14, 2021",9.25,16885,2021-02-14
8705,Sold,0x00d7c9,KittyGr_…,0.10Ξ ($60),"Jun 08, 2018",0.1,60,2018-06-08
8706,Sold,flipper_,0x568cf5,"5.94Ξ ($2,160)","Sep 28, 2020",5.94,2160,2020-09-28
8706,Sold,0xe754d1,0xaa33f7,"3.39Ξ ($1,217)","Sep 28, 2020",3.39,1217,2020-09-28
8706,Sold,0xf4239e,0xe754d1,"3Ξ ($1,065)","Sep 27, 2020",3,1065,2020-09-27
8706,Sold,Hemba,0xf4239e,2.30Ξ ($796),"Sep 24, 2020",2.3,796,2020-09-24
8707,Sold,0xca8fe4,vanarman…,"23.50Ξ ($39,445)","Mar 27, 2021",23.5,39445,2021-03-27
8708,Sold,0x00d7c9,0x00bd3a,0.40Ξ ($95),"Jul 09, 2017",0.4,95,2017-07-09
8710,Sold,5734076,1975358,"15.50Ξ ($29,758)","Feb 19, 2021",15.5,29758,2021-02-19
8713,Sold,0x4dcaf3,0xdbed69…,1.15Ξ ($249),"Aug 11, 2019",1.15,249,2019-08-11
8713,Sold,shilpixe…,0x4dcaf3,1Ξ ($266),"Jul 06, 2017",1,266,2017-07-06
8715,Sold,scalynel…,Pranksy,0.99Ξ ($200),"May 22, 2020",0.99,200,2020-05-22
8715,Sold,Goop,scalynel…,0.44Ξ ($58),"Jan 01, 2020",0.44,58,2020-01-01
8715,Sold,0x87e225,Goop,0.39Ξ ($53),"Dec 30, 2019",0.39,53,2019-12-30
8715,Sold,0x00d7c9,0x87e225,0.30Ξ ($66),"Jul 19, 2019",0.3,66,2019-07-19
8716,Sold,0x3a8441,tycoon.e…,"6Ξ ($1,440)","Jul 11, 2020",6,1440,2020-07-11
8717,Sold,9094751,2563893,"31Ξ ($56,912)","Mar 09, 2021",31,56912,2021-03-09
8718,Sold,BitcoinG…,chaoscon…,1.40Ξ ($481),"Sep 08, 2020",1.4,481,2020-09-08
8718,Sold,0x1a96af,BitcoinG…,1.39Ξ ($287),"May 24, 2020",1.39,287,2020-05-24
8719,Sold,stazie,gaus,"10Ξ ($3,651)","Sep 28, 2020",10,3651,2020-09-28
8719,Sold,0x00d7c9,stazie,0.70Ξ ($172),"Jun 05, 2019",0.7,172,2019-06-05
8721,Sold,0x577ebc,492291,"27.99Ξ ($50,113)","Mar 17, 2021",27.99,50113,2021-03-17
8723,Sold,0x577ebc,sighduck…,"65Ξ ($141,006)","Apr 10, 2021",65,141006,2021-04-10
8724,Sold,11551919,11644366,"10Ξ ($13,224)","Feb 01, 2021",10,13224,2021-02-01
8727,Sold,0xa762aa,0x6bf62d,"13.50Ξ ($28,044)","Apr 04, 2021",13.5,28044,2021-04-04
8727,Sold,0x6a28ca,0xa762aa,"12.88Ξ ($24,439)","Feb 18, 2021",12.88,24439,2021-02-18
8727,Sold,0x13816f,0x6a28ca,"11.88Ξ ($21,861)","Feb 17, 2021",11.88,21861,2021-02-17
8727,Sold,0x3ba9cd,0x13816f,"3.05Ξ ($1,078)","Sep 27, 2020",3.05,1078,2020-09-27
8727,Sold,0x11c9a7,0x3ba9cd,1.98Ξ ($671),"Sep 23, 2020",1.98,671,2020-09-23
8727,Sold,Pranksy,0x11c9a7,1.88Ξ ($690),"Sep 15, 2020",1.88,690,2020-09-15
8727,Sold,juggerna…,alxo,0.25Ξ ($38),"Nov 23, 2019",0.25,38,2019-11-23
8729,Sold,16451452,3405896,0.50Ξ ($103),"Oct 20, 2018",0.5,103,2018-10-20
8730,Sold,MrNFT,0x93db36,1.94Ξ ($748),"Sep 20, 2020",1.94,748,2020-09-20
8730,Sold,0x67b404,MrNFT,1.80Ξ ($688),"Sep 18, 2020",1.8,688,2020-09-18
8730,Sold,0xb6be4d,0x67b404,0.79Ξ ($178),"Jun 29, 2020",0.79,178,2020-06-29
8735,Sold,0x3d826e,8140989,"6Ξ ($7,911)","Jan 24, 2021",6,7911,2021-01-24
8735,Sold,0x00d7c9,4031086,0.10Ξ ($72),"Dec 28, 2017",0.1,72,2017-12-28
8736,Sold,0x27e313,tonyherr…,"25Ξ ($51,972)","Apr 09, 2021",25,51972,2021-04-09
8736,Sold,0xca8fe4,0x27e313,"16.50Ξ ($34,656)","Apr 05, 2021",16.5,34656,2021-04-05
8738,Sold,0xd8e806,16745492,1.20Ξ ($246),"Jul 13, 2017",1.2,246,2017-07-13
8739,Sold,CPyrc,NFTinTin,1.20Ξ ($461),"Sep 19, 2020",1.2,461,2020-09-19
8739,Sold,0x8ba3e2,Pranksy,0.58Ξ ($116),"May 15, 2020",0.58,116,2020-05-15
8740,Sold,212711,13643953,"6.95Ξ ($12,524)","Feb 13, 2021",6.95,12524,2021-02-13
8740,Sold,11976269,212711,"2.96Ξ ($1,052)","Sep 26, 2020",2.96,1052,2020-09-26
8740,Sold,4954869,11976269,0.83Ξ ($324),"Aug 23, 2020",0.83,324,2020-08-23
8740,Sold,11976269,4954869,0.79Ξ ($178),"Jun 27, 2020",0.79,178,2020-06-27
8741,Sold,55241,7435267,0.05Ξ ($26),"May 28, 2018",0.05,26,2018-05-28
8743,Sold,0xaae8c5,4069370,"6.99Ξ ($8,201)","Jan 08, 2021",6.99,8201,2021-01-08
8743,Sold,0xca8fe4,11200709,"6.50Ξ ($8,035)","Jan 07, 2021",6.5,8035,2021-01-07
8744,Sold,7293485,644104,"27.50Ξ ($50,143)","Mar 20, 2021",27.5,50143,2021-03-20
8745,Sold,7293485,7022898,"12.87Ξ ($23,151)","Feb 11, 2021",12.87,23151,2021-02-11
8747,Sold,0x338fd1,0xf01d6f,"24.90Ξ ($43,395)","Mar 13, 2021",24.9,43395,2021-03-13
8747,Sold,pleyuh.e…,0x338fd1,"22.70Ξ ($40,613)","Mar 11, 2021",22.7,40613,2021-03-11
8747,Sold,Kittypad,pleyuh.e…,"12Ξ ($21,799)","Feb 15, 2021",12,21799,2021-02-15
8747,Sold,0xb38071,0x5b331e,"5.80Ξ ($7,371)","Jan 07, 2021",5.8,7371,2021-01-07
8750,Sold,0x470e9b,Snowfro,3.50Ξ ($505),"Mar 29, 2019",3.5,505,2019-03-29
8751,Sold,0x8f6b1e,0x0e6167,"14.75Ξ ($29,100)","Feb 21, 2021",14.75,29100,2021-02-21
8751,Sold,tonyherr…,0xd030b1,"6.50Ξ ($11,713)","Feb 13, 2021",6.5,11713,2021-02-13
8751,Sold,Pranksy,CryptoPa…,"4.20Ξ ($5,259)","Jan 22, 2021",4.2,5259,2021-01-22
8751,Sold,0xfaf959…,0x5b331e,"5Ξ ($5,580)","Jan 06, 2021",5,5580,2021-01-06
8751,Sold,0xb6be4d,0xfaf959…,"4.69Ξ ($4,865)","Jan 04, 2021",4.69,4865,2021-01-04
8752,Sold,GoWest23,zonted,"18.99Ξ ($7,049)","Sep 12, 2020",18.99,7049,2020-09-12
8752,Sold,0x8ba3e2,GoWest23,1.50Ξ ($249),"Apr 06, 2019",1.5,249,2019-04-06
8754,Sold,1742511,0xc352b5,0.64Ξ ($129),"May 14, 2020",0.64,129,2020-05-14
8759,Sold,12586027,5639058,0.62Ξ ($118),"Jul 11, 2017",0.62,118,2017-07-11
8764,Sold,0x00ce50,13621708,"32.50Ξ ($52,316)","Mar 03, 2021",32.5,52316,2021-03-03
8766,Sold,0xc272ed,7435267,0.05Ξ ($64),"Jan 09, 2018",0.05,64,2018-01-09
8767,Sold,0xca8fe4,district…,"8.50Ξ ($8,776)","Jan 05, 2021",8.5,8776,2021-01-05
8770,Sold,EliteCat…,0x0e4437,"69.96Ξ ($107,116)","Mar 05, 2021",69.96,107116,2021-03-05
8770,Sold,Alex3422,EliteCat…,"14Ξ ($4,919)","Oct 05, 2020",14,4919,2020-10-05
8770,Sold,GoWest23,Alex3422,"12.75Ξ ($4,493)","Sep 29, 2020",12.75,4493,2020-09-29
8770,Sold,antunes_…,GoWest23,2Ξ ($379),"May 10, 2020",2,379,2020-05-10
8770,Sold,shilpixe…,Spilliae…,1Ξ ($191),"Apr 25, 2020",1,191,2020-04-25
8771,Sold,0x8234be,Kenney,0.20Ξ ($174),"Mar 01, 2018",0.2,174,2018-03-01
8775,Sold,0x8234be,Kenney,0.20Ξ ($174),"Mar 01, 2018",0.2,174,2018-03-01
8777,Sold,5966219,11644366,"6.25Ξ ($10,714)","Feb 08, 2021",6.25,10714,2021-02-08
8780,Sold,0x5462de,7823584,1.51Ξ ($530),"Sep 02, 2017",1.51,530,2017-09-02
8781,Sold,0xe907c9,8130379,"27Ξ ($55,956)","Apr 09, 2021",27,55956,2021-04-09
8781,Sold,0x1455f0,15271881,"23Ξ ($38,804)","Mar 27, 2021",23,38804,2021-03-27
8781,Sold,0xfd6bf7,1332720,"35Ξ ($65,291)","Mar 14, 2021",35,65291,2021-03-14
8781,Sold,0x052564,16608247,"30Ξ ($54,079)","Feb 22, 2021",30,54079,2021-02-22
8781,Sold,0x00bd3a,14215174,0.32Ξ ($65),"Jul 26, 2017",0.32,65,2017-07-26
8781,Sold,0x00bd3a,11116869,0.19Ξ ($56),"Jun 29, 2017",0.19,56,2017-06-29
8781,Sold,0x5b098b,48442,0.12Ξ ($38),"Jun 23, 2017",0.12,38,2017-06-23
8783,Sold,charley,0x701f37,"10.49Ξ ($19,244)","Feb 15, 2021",10.49,19244,2021-02-15
8783,Sold,0x42cec1,0xbe7516,"4.40Ξ ($5,450)","Jan 23, 2021",4.4,5450,2021-01-23
8783,Sold,0x30507c,0x0f3d41,"2Ξ ($2,660)","Jan 21, 2021",2,2660,2021-01-21
8783,Sold,Pranksy,0x30507c,0.50Ξ ($73),"Dec 10, 2019",0.5,73,2019-12-10
8783,Sold,0x00d7c9,Pranksy,0.25Ξ ($45),"Sep 02, 2019",0.25,45,2019-09-02
8785,Sold,curating…,0xa3cb30,1.30Ξ ($267),"Jul 13, 2017",1.3,267,2017-07-13
8787,Sold,0x0b88fd,934967,"47Ξ ($85,896)","Mar 20, 2021",47,85896,2021-03-20
8788,Sold,11976269,16145942,"4.15Ξ ($2,531)","Dec 25, 2020",4.15,2531,2020-12-25
8789,Sold,0x0553de,0x7f3560,"5.98Ξ ($2,134)","Sep 30, 2020",5.98,2134,2020-09-30
8789,Sold,j1mmy,0x0553de,"4.20Ξ ($1,502)","Sep 28, 2020",4.2,1502,2020-09-28
8789,Sold,DANNY,Sylveste…,1.35Ξ ($492),"Sep 11, 2020",1.35,492,2020-09-11
8789,Sold,Hemba,DANNY,1.20Ξ ($243),"May 14, 2020",1.2,243,2020-05-14
8796,Sold,0x65ba4f,TokenAng…,"24.40Ξ ($46,150)","Feb 18, 2021",24.4,46150,2021-02-18
8796,Sold,0x577ebc,0x65ba4f,"12.50Ξ ($23,118)","Feb 14, 2021",12.5,23118,2021-02-14
8797,Sold,5734076,alphab.e…,"24Ξ ($45,668)","Mar 14, 2021",24,45668,2021-03-14
8798,Sold,11976269,8327181,"21Ξ ($37,839)","Mar 18, 2021",21,37839,2021-03-18
8800,Sold,55241,Cryptokk…,0.50Ξ ($86),"May 08, 2019",0.5,86,2019-05-08
8800,Sold,6827056,0x00d7c9,0.39Ξ ($96),"Jul 08, 2017",0.39,96,2017-07-08
8801,Sold,5734076,1633948,"50Ξ ($104,281)","Apr 06, 2021",50,104281,2021-04-06
8802,Sold,6827056,2390212,0.49Ξ ($106),"Jul 21, 2017",0.49,106,2017-07-21
8803,Sold,niwin,monopoly…,"12Ξ ($22,100)","Feb 12, 2021",12,22100,2021-02-12
8803,Sold,0x12c9c4,niwin,"8.88Ξ ($12,720)","Feb 02, 2021",8.88,12720,2021-02-02
8803,Sold,0x67b404,0x12c9c4,"6.50Ξ ($8,035)","Jan 07, 2021",6.5,8035,2021-01-07
8803,Sold,Carlini8,0x67b404,2Ξ ($457),"Jun 22, 2020",2,457,2020-06-22
8803,Sold,0xbfa319,Carlini8,1.15Ξ ($146),"Jan 03, 2020",1.15,146,2020-01-03
8803,Sold,0x00d7c9,0xbfa319,0.10Ξ ($38),"Nov 22, 2017",0.1,38,2017-11-22
8806,Sold,55241,3035547,0.25Ξ ($47),"Aug 27, 2019",0.25,47,2019-08-27
8807,Sold,0xa2df60,15363428,"23Ξ ($41,156)","Mar 18, 2021",23,41156,2021-03-18
8807,Sold,0xcf6a52,10674016,"23Ξ ($35,265)","Feb 25, 2021",23,35265,2021-02-25
8807,Sold,0xc00c2b,13593170,1.80Ξ ($363),"May 22, 2020",1.8,363,2020-05-22
8807,Sold,0x00d7c9,12586027,0.35Ξ ($101),"Jul 05, 2019",0.35,101,2019-07-05
8810,Sold,Hemba,stazie,0.90Ξ ($176),"Apr 28, 2020",0.9,176,2020-04-28
8811,Sold,0xcc7c33,14548427,"61Ξ ($125,896)","Apr 08, 2021",61,125896,2021-04-08
8813,Sold,0xc155f9,13490252,"16.25Ξ ($32,357)","Feb 20, 2021",16.25,32357,2021-02-20
8813,Sold,0x00ce50,12670457,"12.50Ξ ($24,586)","Feb 19, 2021",12.5,24586,2021-02-19
8817,Sold,0x13816f,0xcf6165,"4.88Ξ ($3,136)","Dec 26, 2020",4.88,3136,2020-12-26
8817,Sold,99Zed,0x13816f,"3.25Ξ ($1,144)","Sep 27, 2020",3.25,1144,2020-09-27
8817,Sold,ChrisR,99Zed,0.88Ξ ($297),"Sep 07, 2020",0.88,297,2020-09-07
8817,Sold,0x1a96af,Pranksy,0.97Ξ ($196),"May 22, 2020",0.97,196,2020-05-22
8819,Sold,0x023ef7,0x0e9aed,"24.98Ξ ($51,845)","Apr 09, 2021",24.98,51845,2021-04-09
8819,Sold,0xabf107,0x023ef7,"18.77Ξ ($31,324)","Mar 28, 2021",18.77,31324,2021-03-28
8819,Sold,EliteCat…,0xabf107,"16.73Ξ ($28,244)","Mar 28, 2021",16.73,28244,2021-03-28
8819,Sold,NFTinTin,GoWest23,3.99Ξ ($673),"Apr 08, 2020",3.99,673,2020-04-08
8819,Sold,0x0553de,NFTinTin,0.95Ξ ($148),"Jan 14, 2020",0.95,148,2020-01-14
8819,Sold,0x00d7c9,0x0553de,0.40Ξ ($84),"Aug 09, 2019",0.4,84,2019-08-09
8820,Sold,0x1a96af,6487609,1.18Ξ ($287),"Jun 09, 2020",1.18,287,2020-06-09
8820,Sold,0xbc081c,6781763,0.30Ξ ($68),"Jul 20, 2017",0.3,68,2017-07-20
8821,Sold,jesterbo…,0x301874,"23.95Ξ ($46,365)","Feb 21, 2021",23.95,46365,2021-02-21
8824,Sold,0x890c12,2523497,"5.89Ξ ($7,548)","Jan 26, 2021",5.89,7548,2021-01-26
8824,Sold,0x1a96af,8981522,1.09Ξ ($260),"Jul 07, 2020",1.09,260,2020-07-07
8825,Sold,0xde0193,12800693,0.45Ξ ($39),"Dec 13, 2018",0.45,39,2018-12-13
8828,Sold,0xf3016b,0xb50ac7,"51.99Ξ ($111,404)","Apr 12, 2021",51.99,111404,2021-04-12
8828,Sold,0x691b87,0xf3016b,"46.99Ξ ($83,545)","Mar 12, 2021",46.99,83545,2021-03-12
8828,Sold,heeee.et…,0xeb725f,"35.99Ξ ($71,652)","Feb 20, 2021",35.99,71652,2021-02-20
8828,Sold,0xca8fe4,heeee.et…,"15Ξ ($27,684)","Feb 14, 2021",15,27684,2021-02-14
8829,Sold,0x21bc7f,BlackKet…,"23.25Ξ ($42,547)","Mar 18, 2021",23.25,42547,2021-03-18
8829,Sold,GoWest23,0x927635,"6.25Ξ ($2,194)","Sep 27, 2020",6.25,2194,2020-09-27
8829,Sold,Hemba,GoWest23,0.55Ξ ($74),"Jan 04, 2020",0.55,74,2020-01-04
8830,Sold,Carlini8,gaus,2.49Ξ ($869),"Sep 25, 2020",2.49,869,2020-09-25
8830,Sold,Hemba,Carlini8,1.60Ξ ($602),"Sep 14, 2020",1.6,602,2020-09-14
8831,Sold,Hemba,0x2e50b2,1.50Ξ ($361),"Jul 12, 2020",1.5,361,2020-07-12
8832,Sold,5966219,niwin,"4.98Ξ ($1,817)","Sep 28, 2020",4.98,1817,2020-09-28
8832,Sold,5331586,0x5b098b,0.18Ξ ($50),"Jul 03, 2017",0.18,50,2017-07-03
8833,Sold,0xc272ed,2083382,"28Ξ ($41,822)","Feb 27, 2021",28,41822,2021-02-27
8834,Sold,5734076,8220201,"21.49Ξ ($39,568)","Mar 10, 2021",21.49,39568,2021-03-10
8835,Sold,Roses,Kataster…,1Ξ ($161),"Jan 16, 2020",1,161,2020-01-16
8835,Sold,0xcc7c33,Roses,0.45Ξ ($110),"May 22, 2019",0.45,110,2019-05-22
8836,Sold,Hemba,Kenney,0.25Ξ ($262),"Jan 26, 2018",0.25,262,2018-01-26
8837,Sold,VonMises,j1mmy,"5.50Ξ ($1,920)","Oct 06, 2020",5.5,1920,2020-10-06
8837,Sold,Hemba,VonMises,2.15Ξ ($473),"May 29, 2020",2.15,473,2020-05-29
8838,Sold,12878075,8769867,"38Ξ ($77,818)","Apr 08, 2021",38,77818,2021-04-08
8839,Sold,55241,7435267,0.05Ξ ($28),"May 30, 2018",0.05,28,2018-05-30
8840,Sold,0xd4fa6e,16745492,0.75Ξ ($202),"Jul 04, 2017",0.75,202,2017-07-04
8843,Sold,Shrugs,0x98c488,1Ξ ($205),"May 24, 2020",1,205,2020-05-24
8843,Sold,0x231707,Shrugs,0.25Ξ ($70),"Aug 15, 2018",0.25,70,2018-08-15
8844,Sold,0xcc7c33,9059630,"75Ξ ($149,457)","Apr 07, 2021",75,149457,2021-04-07
8845,Sold,0x544509,0x7e97e6,"7Ξ ($8,133)","Jan 16, 2021",7,8133,2021-01-16
8845,Sold,2pac,0x544509,"5.00Ξ ($2,286)","Nov 15, 2020",5,2286,2020-11-15
8845,Sold,0x0601d0,0x257e2b,"7.10Ξ ($2,673)","Oct 15, 2020",7.1,2673,2020-10-15
8847,Sold,0x3e17fa,12189147,"65Ξ ($130,103)","Feb 20, 2021",65,130103,2021-02-20
8847,Sold,0x09d408,4069370,"70Ξ ($131,874)","Feb 18, 2021",70,131874,2021-02-18
8847,Sold,0xca8fe4,644104,"32Ξ ($47,523)","Feb 02, 2021",32,47523,2021-02-02
8849,Sold,EliteCat…,0x584cdf,"31.75Ξ ($54,102)","Mar 28, 2021",31.75,54102,2021-03-28
8849,Sold,0xca8fe4,EliteCat…,"18Ξ ($29,449)","Feb 07, 2021",18,29449,2021-02-07
8850,Sold,55241,2187245,0.10Ξ ($51),"May 28, 2018",0.1,51,2018-05-28
8851,Sold,0x8ba3e2,snowfro,2.50Ξ ($351),"Mar 27, 2019",2.5,351,2019-03-27
8851,Sold,0xc0f5dd,0x8ba3e2,0.50Ξ ($155),"Sep 27, 2017",0.5,155,2017-09-27
8852,Sold,0x1a96af,Catdog,0.53Ξ ($102),"Apr 27, 2020",0.53,102,2020-04-27
8853,Sold,13819048,1925664,0.45Ξ ($63),"Dec 24, 2018",0.45,63,2018-12-24
8853,Sold,8533182,13819048,0.10Ξ ($38),"Apr 05, 2018",0.1,38,2018-04-05
8854,Sold,12586027,45688,0.37Ξ ($88),"Jul 09, 2017",0.37,88,2017-07-09
8857,Sold,0x8234be,10135275,"2.50Ξ ($1,717)","May 02, 2018",2.5,1717,2018-05-02
8859,Sold,5734076,14314199,"27Ξ ($48,041)","Mar 15, 2021",27,48041,2021-03-15
8861,Sold,0xa68665,0x8cb33d,"25.92Ξ ($36,961)","Mar 01, 2021",25.92,36961,2021-03-01
8861,Sold,charley,0x6dfb2e,"9.47Ξ ($17,459)","Feb 14, 2021",9.47,17459,2021-02-14
8861,Sold,0x881ef2,0x11c9a7,"5Ξ ($3,119)","Dec 22, 2020",5,3119,2020-12-22
8861,Sold,Deeze,0x881ef2,"4.73Ξ ($1,626)","Oct 02, 2020",4.73,1626,2020-10-02
8861,Sold,NeonNFT,Deeze,"3.50Ξ ($1,253)","Sep 28, 2020",3.5,1253,2020-09-28
8861,Sold,0x3ba9cd,NeonNFT,"3.05Ξ ($1,078)","Sep 27, 2020",3.05,1078,2020-09-27
8861,Sold,j1mmy,0x3ba9cd,2Ξ ($678),"Sep 23, 2020",2,678,2020-09-23
8861,Sold,VonMises,j1mmy,1.95Ξ ($704),"Sep 16, 2020",1.95,704,2020-09-16
8861,Sold,0x1a96af,VonMises,0.82Ξ ($159),"Apr 27, 2020",0.82,159,2020-04-27
8865,Sold,4042394,2340107,"155Ξ ($262,333)","Mar 23, 2021",155,262333,2021-03-23
8866,Sold,0x58164b,7823584,0.05Ξ ($43),"Feb 24, 2018",0.05,43,2018-02-24
8870,Sold,0x3bb0fe,0x701f37,"120Ξ ($201,478)","Feb 04, 2021",120,201478,2021-02-04
8870,Sold,ark1,0x3bb0fe,1.20Ξ ($147),"Dec 17, 2019",1.2,147,2019-12-17
8871,Sold,0x5e8f92,0xa7b6f7,"17.20Ξ ($31,113)","Mar 31, 2021",17.2,31113,2021-03-31
8871,Sold,0xa22ac4,0x5e8f92,"5.75Ξ ($7,604)","Feb 01, 2021",5.75,7604,2021-02-01
8871,Sold,MrNFT,0xe5e771,2.40Ξ ($788),"Sep 24, 2020",2.4,788,2020-09-24
8871,Sold,0xde9246,MrNFT,1.90Ξ ($649),"Sep 23, 2020",1.9,649,2020-09-23
8871,Sold,Loopify,0xde9246,1.81Ξ ($697),"Sep 19, 2020",1.81,697,2020-09-19
8871,Sold,j1mmy,Loopify,1.69Ξ ($641),"Sep 19, 2020",1.69,641,2020-09-19
8871,Sold,0xd5fb85,Sylveste…,1.25Ξ ($455),"Sep 11, 2020",1.25,455,2020-09-11
8871,Sold,ChrisR,0x67b404,1.14Ξ ($262),"Jun 20, 2020",1.14,262,2020-06-20
8871,Sold,0xb6be4d,ChrisR,0.70Ξ ($160),"Jun 19, 2020",0.7,160,2020-06-19
8872,Sold,9862885,473287,"22.50Ξ ($43,716)","Feb 21, 2021",22.5,43716,2021-02-21
8872,Sold,5966219,9862885,"16.97Ξ ($30,863)","Feb 17, 2021",16.97,30863,2021-02-17
8873,Sold,55241,7435267,0.05Ξ ($26),"May 28, 2018",0.05,26,2018-05-28
8874,Sold,11976269,11115243,"22.22Ξ ($38,224)","Mar 22, 2021",22.22,38224,2021-03-22
8877,Sold,Cyborg,0x94c1d7,0.14Ξ ($100),"Dec 17, 2017",0.14,100,2017-12-17
8878,Sold,9734672,45688,0.30Ξ ($83),"Jul 03, 2017",0.3,83,2017-07-03
8878,Sold,5966219,9734672,0.13Ξ ($43),"Jun 23, 2017",0.13,43,2017-06-23
8879,Sold,0x5b098b,moonphas…,"5.13Ξ ($1,849)","Sep 27, 2020",5.13,1849,2020-09-27
8885,Sold,0x74be0a,charley,"16.49Ξ ($32,350)","Feb 21, 2021",16.49,32350,2021-02-21
8885,Sold,EliteCat…,0x74be0a,"9Ξ ($16,244)","Feb 17, 2021",9,16244,2021-02-17
8885,Sold,Hemba,GoWest23,0.42Ξ ($74),"May 06, 2019",0.42,74,2019-05-06
8886,Sold,TokenAng…,0x4397c8,"11Ξ ($3,889)","Sep 06, 2020",11,3889,2020-09-06
8886,Sold,shilpixe…,TokenAng…,"6Ξ ($1,254)","May 05, 2020",6,1254,2020-05-05
8887,Sold,0x58164b,7435267,0.05Ξ ($56),"Jan 07, 2018",0.05,56,2018-01-07
8888,Sold,0x47d4f2,3151988,"33.10Ξ ($48,356)","Feb 27, 2021",33.1,48356,2021-02-27
8889,Sold,Alex3422,0x090d16,3.50Ξ ($801),"Jun 20, 2020",3.5,801,2020-06-20
8889,Sold,GtC,Alex3422,2.20Ξ ($457),"May 22, 2020",2.2,457,2020-05-22
8889,Sold,0x00d7c9,GtC,0.25Ξ ($45),"Sep 03, 2019",0.25,45,2019-09-03
8892,Sold,Carlini8,0x4ee1f9,"19.99Ξ ($42,988)","Apr 11, 2021",19.99,42988,2021-04-11
8892,Sold,Zonked,Carlini8,"15.85Ξ ($32,762)","Apr 08, 2021",15.85,32762,2021-04-08
8892,Sold,0x70ea7b,Zonked,"15Ξ ($29,785)","Apr 07, 2021",15,29785,2021-04-07
8892,Sold,MT1000,0xd6d7ea,"6.35Ξ ($11,443)","Feb 13, 2021",6.35,11443,2021-02-13
8892,Sold,0x13816f,MT1000,"5.48Ξ ($7,000)","Jan 27, 2021",5.48,7000,2021-01-27
8892,Sold,0x196a3d,0x13816f,"4.35Ξ ($1,557)","Sep 28, 2020",4.35,1557,2020-09-28
8892,Sold,0x20e386,0x196a3d,1.20Ξ ($465),"Sep 13, 2020",1.2,465,2020-09-13
8894,Sold,Pixls,Cryptokk…,0.39Ξ ($52),"Mar 14, 2019",0.39,52,2019-03-14
8894,Sold,PabloFM,Pixls,0.25Ξ ($40),"Feb 23, 2019",0.25,40,2019-02-23
8894,Sold,Hemba,PabloFM,0.12Ξ ($26),"Sep 26, 2018",0.12,26,2018-09-26
8897,Sold,0x7f49d2,0x23b50b,"22.39Ξ ($35,145)","Mar 04, 2021",22.39,35145,2021-03-04
8897,Sold,0x19ac60,0x7f49d2,"6Ξ ($4,199)","Dec 28, 2020",6,4199,2020-12-28
8900,Sold,3van.eth,0x702e9e,"16Ξ ($26,633)","Feb 04, 2021",16,26633,2021-02-04
8900,Sold,curating…,evkort,"15Ξ ($8,329)","Nov 23, 2020",15,8329,2020-11-23
8901,Sold,0x13816f,0x5b00f3,"8.23Ξ ($14,879)","Feb 15, 2021",8.23,14879,2021-02-15
8901,Sold,0x9ce03d,0x568cf5,"5.75Ξ ($2,045)","Sep 30, 2020",5.75,2045,2020-09-30
8901,Sold,cryptoke…,0x9ce03d,"5.75Ξ ($2,034)","Sep 29, 2020",5.75,2034,2020-09-29
8901,Sold,0xe754d1,cryptoke…,"4.99Ξ ($1,769)","Sep 29, 2020",4.99,1769,2020-09-29
8901,Sold,NeonNFT,0xe754d1,"3.40Ξ ($1,217)","Sep 28, 2020",3.4,1217,2020-09-28
8901,Sold,Pranksy,NeonNFT,"2.89Ξ ($1,020)","Sep 27, 2020",2.89,1020,2020-09-27
8901,Sold,Hemba,Pranksy,2.30Ξ ($796),"Sep 24, 2020",2.3,796,2020-09-24
8902,Sold,16033653,16722004,"20Ξ ($31,810)","Mar 25, 2021",20,31810,2021-03-25
8902,Sold,55241,16033653,0.10Ξ ($46),"Dec 03, 2017",0.1,46,2017-12-03
8903,Sold,0x1f8add,artartar…,1.10Ξ ($354),"Jul 28, 2020",1.1,354,2020-07-28
8903,Sold,Pranksy,0x1f8add,0.99Ξ ($201),"May 15, 2020",0.99,201,2020-05-15
8903,Sold,NFTinTin,Pranksy,0.99Ξ ($175),"Jan 18, 2020",0.99,175,2020-01-18
8903,Sold,0x682c30,NFTinTin,0.49Ξ ($65),"Jan 04, 2020",0.49,65,2020-01-04
8904,Sold,3van.eth,0x996290,"7.49Ξ ($9,641)","Jan 26, 2021",7.49,9641,2021-01-26
8904,Sold,Cryptokk…,evkort,"7.50Ξ ($2,635)","Oct 05, 2020",7.5,2635,2020-10-05
8904,Sold,0x00d7c9,Cryptokk…,0.50Ξ ($82),"Apr 13, 2019",0.5,82,2019-04-13
8905,Sold,pleyuh.e…,0x68952d,"22Ξ ($39,316)","Mar 11, 2021",22,39316,2021-03-11
8905,Sold,0xdcf227,pleyuh.e…,"6.75Ξ ($11,571)","Feb 08, 2021",6.75,11571,2021-02-08
8905,Sold,kingskin…,0xdcf227,"5.85Ξ ($9,826)","Feb 06, 2021",5.85,9826,2021-02-06
8905,Sold,Dude_Nak…,kingskin…,2.29Ξ ($882),"Sep 19, 2020",2.29,882,2020-09-19
8905,Sold,Fearless…,Dude_Nak…,0.50Ξ ($59),"Mar 13, 2020",0.5,59,2020-03-13
8905,Sold,0xe45df5,Fearless…,0.34Ξ ($40),"Jan 24, 2019",0.34,40,2019-01-24
8906,Sold,0x1a4d11,0x5fbe63,"60Ξ ($107,727)","Mar 15, 2021",60,107727,2021-03-15
8906,Sold,niwin,0x1a4d11,"52Ξ ($97,686)","Mar 15, 2021",52,97686,2021-03-15
8906,Sold,DANNY,niwin,"45Ξ ($86,623)","Feb 21, 2021",45,86623,2021-02-21
8906,Sold,0xca8fe4,DANNY,"25Ξ ($33,717)","Jan 30, 2021",25,33717,2021-01-30
8907,Sold,0x6f4a2d,965914,"23.95Ξ ($42,564)","Feb 17, 2021",23.95,42564,2021-02-17
8910,Sold,0x00d7c9,Snowfro,1Ξ ($143),"Mar 30, 2019",1,143,2019-03-30
8911,Sold,NFTinTin,docblock,"4.99Ξ ($1,767)","Sep 28, 2020",4.99,1767,2020-09-28
8911,Sold,juggerna…,NFTinTin,0.25Ξ ($46),"Nov 02, 2019",0.25,46,2019-11-02
8912,Sold,jmg,0x967fb9,0.69Ξ ($80),"Jan 13, 2019",0.69,80,2019-01-13
8912,Sold,0xe45df5,jmg,0.35Ξ ($30),"Dec 13, 2018",0.35,30,2018-12-13
8913,Sold,5734076,2367319,"27Ξ ($48,412)","Mar 22, 2021",27,48412,2021-03-22
8915,Sold,1742511,artofrjm,1.29Ξ ($257),"May 26, 2020",1.29,257,2020-05-26
8916,Sold,12604552,15614780,"40.50Ξ ($68,449)","Mar 28, 2021",40.5,68449,2021-03-28
8916,Sold,7293485,12604552,"32.50Ξ ($59,863)","Mar 09, 2021",32.5,59863,2021-03-09
8917,Sold,Hemba,0x2363b1,0.44Ξ ($60),"Nov 21, 2018",0.44,60,2018-11-21
8918,Sold,Hemba,helpchai…,0.75Ξ ($165),"Feb 07, 2020",0.75,165,2020-02-07
8919,Sold,JayDelay,0x11df18,"4.69Ξ ($2,926)","Dec 22, 2020",4.69,2926,2020-12-22
8919,Sold,Pranksy,JayDelay,1.25Ξ ($459),"Sep 11, 2020",1.25,459,2020-09-11
8919,Sold,CPyrc,Pranksy,1.19Ξ ($434),"Sep 11, 2020",1.19,434,2020-09-11
8919,Sold,0x4b9af5,Unknown7…,0.98Ξ ($233),"Jul 15, 2020",0.98,233,2020-07-15
8919,Sold,Michel_M…,0x4b9af5,0.75Ξ ($179),"Jul 11, 2020",0.75,179,2020-07-11
8919,Sold,Goop,Michel_M…,0.36Ξ ($53),"Nov 25, 2019",0.36,53,2019-11-25
8919,Sold,jmg,Goop,0.35Ξ ($53),"Nov 23, 2019",0.35,53,2019-11-23
8919,Sold,0x00d7c9,jmg,0.25Ξ ($44),"Sep 28, 2019",0.25,44,2019-09-28
8920,Sold,13401139,9876623,0.25Ξ ($93),"Aug 29, 2017",0.25,93,2017-08-29
8922,Sold,natealex,shilpixe…,1.79Ξ ($420),"Jun 02, 2020",1.79,420,2020-06-02
8922,Sold,juggerna…,natealex,1.35Ξ ($276),"May 24, 2020",1.35,276,2020-05-24
8924,Sold,0x09d408,0xbec69d,"22.99Ξ ($47,521)","Apr 08, 2021",22.99,47521,2021-04-08
8924,Sold,EliteCat…,0x09d408,"20.49Ξ ($31,881)","Mar 06, 2021",20.49,31881,2021-03-06
8924,Sold,0xe45df5,GoWest23,0.50Ξ ($87),"May 06, 2019",0.5,87,2019-05-06
8925,Sold,Hemba,0x717403,0.05Ξ ($13),"Jun 26, 2017",0.05,13,2017-06-26
8926,Sold,0xe5e64f,0x584cdf,"10Ξ ($18,166)","Feb 15, 2021",10,18166,2021-02-15
8926,Sold,cryptosa…,0xe5e64f,0.80Ξ ($350),"Aug 31, 2020",0.8,350,2020-08-31
8926,Sold,Hemba,cryptosa…,1.45Ξ ($299),"May 27, 2020",1.45,299,2020-05-27
8927,Sold,0xa2df60,0x8dd945,"24Ξ ($49,811)","Apr 09, 2021",24,49811,2021-04-09
8927,Sold,0x13816f,0xa2df60,"23Ξ ($47,671)","Apr 09, 2021",23,47671,2021-04-09
8927,Sold,0x3ba9cd,0x13816f,"3.50Ξ ($1,245)","Sep 27, 2020",3.5,1245,2020-09-27
8927,Sold,VonMises,0x3ba9cd,2.75Ξ ($955),"Sep 24, 2020",2.75,955,2020-09-24
8927,Sold,Michel_M…,VonMises,1.11Ξ ($381),"Sep 08, 2020",1.11,381,2020-09-08
8927,Sold,Hemba,Michel_M…,1.10Ξ ($434),"Aug 07, 2020",1.1,434,2020-08-07
8929,Sold,0xca8fe4,14273883,"27Ξ ($46,848)","Feb 09, 2021",27,46848,2021-02-09
8931,Sold,Lumberg,0x850b57,"3.49Ξ ($1,329)","Sep 20, 2020",3.49,1329,2020-09-20
8931,Sold,psylo.et…,Lumberg,1.87Ξ ($386),"May 27, 2020",1.87,386,2020-05-27
8931,Sold,0x3a8441,psylo.et…,1.75Ξ ($353),"May 27, 2020",1.75,353,2020-05-27
8933,Sold,0x84c920,0x5e1b38,"21.50Ξ ($39,601)","Mar 09, 2021",21.5,39601,2021-03-09
8933,Sold,0xf3d10d,0x84c920,"23.49Ξ ($38,960)","Mar 07, 2021",23.49,38960,2021-03-07
8933,Sold,Punkofth…,0xb6681a,"12Ξ ($18,723)","Feb 03, 2021",12,18723,2021-02-03
8934,Sold,0xbfa319,TokenAng…,1.26Ξ ($332),"Jun 14, 2019",1.26,332,2019-06-14
8934,Sold,0x00d7c9,0xbfa319,0.10Ξ ($38),"Nov 22, 2017",0.1,38,2017-11-22
8936,Sold,0x577ebc,Deeze,"32.99Ξ ($57,350)","Mar 12, 2021",32.99,57350,2021-03-12
8937,Sold,shilpixe…,0x769eec,"21Ξ ($43,407)","Apr 08, 2021",21,43407,2021-04-08
8938,Sold,VonMises,qiwave,1.10Ξ ($242),"Jun 28, 2020",1.1,242,2020-06-28
8938,Sold,0xb6be4d,VonMises,0.79Ξ ($178),"Jun 27, 2020",0.79,178,2020-06-27
8940,Sold,Hemba,0x717403,0.05Ξ ($13),"Jun 26, 2017",0.05,13,2017-06-26
8941,Sold,8338175,4997008,"18.50Ξ ($33,737)","Mar 31, 2021",18.5,33737,2021-03-31
8941,Sold,11976269,8338175,"15Ξ ($28,375)","Feb 18, 2021",15,28375,2021-02-18
8942,Sold,Hemba,0x5fdafa,1.65Ξ ($612),"Sep 11, 2020",1.65,612,2020-09-11
8943,Sold,55241,10267061,0.10Ξ ($79),"Dec 21, 2017",0.1,79,2017-12-21
8944,Sold,12788920,377631,"23.80Ξ ($36,131)","Mar 01, 2021",23.8,36131,2021-03-01
8944,Sold,13886183,12788920,"24Ξ ($46,892)","Feb 21, 2021",24,46892,2021-02-21
8944,Sold,13275108,13886183,"8Ξ ($14,626)","Feb 12, 2021",8,14626,2021-02-12
8945,Sold,Hemba,0x93db36,2.50Ξ ($961),"Sep 20, 2020",2.5,961,2020-09-20
8946,Sold,0x023ef7,0xac33a5,"21.50Ξ ($44,633)","Apr 09, 2021",21.5,44633,2021-04-09
8946,Sold,Deeze,0x023ef7,"16.50Ξ ($33,750)","Apr 08, 2021",16.5,33750,2021-04-08
8946,Sold,oref,0x568cf5,"5.50Ξ ($2,011)","Oct 01, 2020",5.5,2011,2020-10-01
8946,Sold,Dude_Nak…,oref,"5.95Ξ ($2,172)","Sep 28, 2020",5.95,2172,2020-09-28
8946,Sold,0x067034,Dude_Nak…,"5Ξ ($1,790)","Sep 28, 2020",5,1790,2020-09-28
8946,Sold,Carlini8,0x067034,"5Ξ ($1,828)","Sep 15, 2020",5,1828,2020-09-15
8946,Sold,natealex,Carlini8,1.92Ξ ($394),"May 22, 2020",1.92,394,2020-05-22
8946,Sold,Hemba,natealex,1.40Ξ ($294),"May 20, 2020",1.4,294,2020-05-20
8949,Sold,CPyrc,0x13816f,"5.75Ξ ($2,027)","Sep 29, 2020",5.75,2027,2020-09-29
8949,Sold,Collin3,CPyrc,"5Ξ ($1,824)","Sep 28, 2020",5,1824,2020-09-28
8949,Sold,0x9ce03d,Collin3,2.20Ξ ($758),"Sep 22, 2020",2.2,758,2020-09-22
8949,Sold,0xe754d1,0x9ce03d,2.10Ξ ($800),"Sep 20, 2020",2.1,800,2020-09-20
8949,Sold,Pranksy,0xe754d1,1.90Ξ ($716),"Sep 14, 2020",1.9,716,2020-09-14
8949,Sold,Goop,alxo,0.26Ξ ($40),"Nov 23, 2019",0.26,40,2019-11-23
8949,Sold,juggerna…,Goop,0.25Ξ ($38),"Nov 23, 2019",0.25,38,2019-11-23
8950,Sold,55241,6689278,0.25Ξ ($80),"Aug 21, 2017",0.25,80,2017-08-21
8951,Sold,0xddfdcb,0x1a4d11,"31.99Ξ ($60,630)","Mar 14, 2021",31.99,60630,2021-03-14
8951,Sold,0x491be7,0xddfdcb,"17.25Ξ ($31,837)","Feb 17, 2021",17.25,31837,2021-02-17
8951,Sold,coinduph…,0x491be7,"6.07Ξ ($2,109)","Oct 03, 2020",6.07,2109,2020-10-03
8951,Sold,0x94f67d,coinduph…,1Ξ ($155),"Apr 13, 2020",1,155,2020-04-13
8952,Sold,8533182,10898397,0.10Ξ ($42),"Dec 07, 2017",0.1,42,2017-12-07
8953,Sold,0xca8fe4,11821764,"23.69Ξ ($40,657)","Mar 28, 2021",23.69,40657,2021-03-28
8954,Sold,5966219,9839860,"22.70Ξ ($48,257)","Apr 12, 2021",22.7,48257,2021-04-12
8954,Sold,48442,5966219,0.19Ξ ($53),"Jun 30, 2017",0.19,53,2017-06-30
8954,Sold,5331586,48442,0.08Ξ ($23),"Jun 29, 2017",0.08,23,2017-06-29
8956,Sold,55241,9483859,0.10Ξ ($115),"Jan 20, 2018",0.1,115,2018-01-20
8958,Sold,5966219,6689278,0.60Ξ ($160),"Jul 06, 2017",0.6,160,2017-07-06
8967,Sold,0xd4fa6e,7250035,0.50Ξ ($146),"Jun 29, 2017",0.5,146,2017-06-29
8970,Sold,0xb1a875,0x0e6167,"14.90Ξ ($29,396)","Feb 21, 2021",14.9,29396,2021-02-21
8970,Sold,0x8f6b1e,0xb1a875,"13.78Ξ ($26,677)","Feb 21, 2021",13.78,26677,2021-02-21
8970,Sold,flipper_,0xd84e80,"5.94Ξ ($10,631)","Feb 11, 2021",5.94,10631,2021-02-11
8970,Sold,0xe754d1,flipper_,"4.80Ξ ($1,695)","Oct 02, 2020",4.8,1695,2020-10-02
8970,Sold,cryptoke…,0xe754d1,"3.39Ξ ($1,203)","Sep 27, 2020",3.39,1203,2020-09-27
8970,Sold,0x11c9a7,cryptoke…,"3.18Ξ ($1,123)","Sep 27, 2020",3.18,1123,2020-09-27
8970,Sold,0x5aaeb9,0x11c9a7,"3Ξ ($1,062)","Sep 27, 2020",3,1062,2020-09-27
8970,Sold,0x067034,0x5aaeb9,"2.85Ξ ($1,008)","Sep 26, 2020",2.85,1008,2020-09-26
8970,Sold,Carlini8,0x067034,2Ξ ($757),"Sep 19, 2020",2,757,2020-09-19
8970,Sold,Pixls,Carlini8,1.45Ξ ($546),"Sep 14, 2020",1.45,546,2020-09-14
8970,Sold,Pranksy,Pixls,1.25Ξ ($458),"Sep 11, 2020",1.25,458,2020-09-11
8970,Sold,ChrisR,Pranksy,1.14Ξ ($415),"Sep 11, 2020",1.14,415,2020-09-11
8970,Sold,0xb6be4d,ChrisR,0.70Ξ ($160),"Jun 19, 2020",0.7,160,2020-06-19
8971,Sold,10736046,7348023,"22.40Ξ ($42,946)","Feb 20, 2021",22.4,42946,2021-02-20
8971,Sold,14549395,10736046,0.40Ξ ($89),"Oct 04, 2018",0.4,89,2018-10-04
8972,Sold,0x577ebc,2356863,"42Ξ ($75,155)","Mar 11, 2021",42,75155,2021-03-11
8973,Sold,6689278,4741246,0.44Ξ ($100),"Jul 18, 2017",0.44,100,2017-07-18
8974,Sold,0x00d7c9,Pixls,0.45Ξ ($78),"May 06, 2019",0.45,78,2019-05-06
8976,Sold,6689278,45688,0.45Ξ ($108),"Jul 07, 2017",0.45,108,2017-07-07
8978,Sold,0x00d7c9,27849,0.50Ξ ($88),"Sep 04, 2019",0.5,88,2019-09-04
8981,Sold,Carlini8,VonMises,"4Ξ ($1,517)","Sep 13, 2020",4,1517,2020-09-13
8981,Sold,0xfb077c,Carlini8,1Ξ ($127),"Jan 03, 2020",1,127,2020-01-03
8984,Sold,natealex,m3mnoch,1.38Ξ ($528),"Sep 14, 2020",1.38,528,2020-09-14
8984,Sold,0xd5fb85,natealex,1Ξ ($364),"Sep 11, 2020",1,364,2020-09-11
8984,Sold,TweetyPi…,0xd5fb85,0.99Ξ ($227),"Jun 20, 2020",0.99,227,2020-06-20
8984,Sold,0xb6be4d,TweetyPi…,0.70Ξ ($160),"Jun 19, 2020",0.7,160,2020-06-19
8987,Sold,13275108,13227139,"6Ξ ($10,244)","Feb 08, 2021",6,10244,2021-02-08
8988,Sold,10758413,9059630,"27Ξ ($57,963)","Apr 11, 2021",27,57963,2021-04-11
8988,Sold,13252568,10758413,"24.50Ξ ($50,780)","Apr 09, 2021",24.5,50780,2021-04-09
8988,Sold,15252816,13252568,"21.95Ξ ($34,594)","Mar 25, 2021",21.95,34594,2021-03-25
8988,Sold,2767820,15252816,"24.99Ξ ($36,330)","Mar 05, 2021",24.99,36330,2021-03-05
8988,Sold,11976269,2767820,"15Ξ ($28,533)","Feb 18, 2021",15,28533,2021-02-18
8990,Sold,0x0553de,BumFun69,2.50Ξ ($596),"Jun 01, 2020",2.5,596,2020-06-01
8990,Sold,0x00d7c9,0x0553de,0.40Ξ ($84),"Aug 09, 2019",0.4,84,2019-08-09
8991,Sold,OnlyToas…,friskynf…,1.65Ξ ($633),"Sep 19, 2020",1.65,633,2020-09-19
8991,Sold,Hemba,OnlyToas…,1.30Ξ ($498),"Sep 12, 2020",1.3,498,2020-09-12
8993,Sold,0x846d55,pelvis.e…,"22.50Ξ ($35,417)","Feb 25, 2021",22.5,35417,2021-02-25
8994,Sold,0x44f2d4,Snowfro,2.50Ξ ($335),"Mar 25, 2019",2.5,335,2019-03-25
8994,Sold,jmg,0x44f2d4,0.69Ξ ($279),"Aug 06, 2018",0.69,279,2018-08-06
8994,Sold,shilpixe…,jmg,0.09Ξ ($91),"Jan 18, 2018",0.09,91,2018-01-18
8995,Sold,0x99c16d,billξ.et…,"15Ξ ($29,343)","Feb 19, 2021",15,29343,2021-02-19
8995,Sold,0xc155f9,0x99c16d,"13.30Ξ ($26,251)","Feb 19, 2021",13.3,26251,2021-02-19
8995,Sold,0x00ce50,0xc155f9,"11.25Ξ ($22,127)","Feb 19, 2021",11.25,22127,2021-02-19
8996,Sold,MrNFT,blockbir…,2.15Ξ ($740),"Sep 22, 2020",2.15,740,2020-09-22
8996,Sold,Hemba,MrNFT,1.80Ξ ($626),"Sep 21, 2020",1.8,626,2020-09-21
8998,Sold,3van.eth,0x3e099a,"7.49Ξ ($5,444)","Dec 28, 2020",7.49,5444,2020-12-28
8998,Sold,KittyGr_…,evkort,"7.50Ξ ($2,565)","Oct 07, 2020",7.5,2565,2020-10-07
8998,Sold,0x00d7c9,KittyGr_…,0.10Ξ ($60),"Jun 08, 2018",0.1,60,2018-06-08
8999,Sold,0x58164b,Kenney,0.12Ξ ($90),"May 07, 2018",0.12,90,2018-05-07
9000,Sold,6249972,15693900,"28Ξ ($50,453)","Mar 10, 2021",28,50453,2021-03-10
9001,Sold,0x13816f,0x0ebd1a,"10.88Ξ ($19,230)","Feb 17, 2021",10.88,19230,2021-02-17
9001,Sold,GoWest23,0x13816f,"6Ξ ($2,085)","Oct 03, 2020",6,2085,2020-10-03
9001,Sold,0x682c30,GoWest23,0.49Ξ ($85),"May 06, 2019",0.49,85,2019-05-06
9003,Sold,0xcbd482,sov,0.43Ξ ($102),"Jul 09, 2017",0.43,102,2017-07-09
9005,Sold,Slacktid…,Michel_M…,"8Ξ ($2,845)","Sep 29, 2020",8,2845,2020-09-29
9005,Sold,0xbfa319,0x976b59,0.29Ξ ($65),"Oct 02, 2018",0.29,65,2018-10-02
9005,Sold,0x00d7c9,0xbfa319,0.10Ξ ($38),"Nov 22, 2017",0.1,38,2017-11-22
9008,Sold,flowbot4…,0xc10b17,"16Ξ ($31,853)","Feb 20, 2021",16,31853,2021-02-20
9008,Sold,Hemba,flowbot4…,0.65Ξ ($139),"Mar 08, 2020",0.65,139,2020-03-08
9009,Sold,shilpixe…,0x7760e0,0.30Ξ ($94),"Oct 08, 2017",0.3,94,2017-10-08
9010,Sold,0x727ca3,pelvis.e…,"10Ξ ($18,618)","Feb 13, 2021",10,18618,2021-02-13
9010,Sold,0xcc7c33,0x727ca3,0.74Ξ ($152),"Jul 10, 2017",0.74,152,2017-07-10
9011,Sold,13401139,3405896,0.76Ξ ($88),"Jan 26, 2019",0.76,88,2019-01-26
9012,Sold,7293485,3422159,"50Ξ ($88,093)","Feb 22, 2021",50,88093,2021-02-22
9014,Sold,7293485,5269070,"27Ξ ($45,760)","Feb 23, 2021",27,45760,2021-02-23
9015,Sold,15010895,14426637,"27.54Ξ ($54,334)","Feb 21, 2021",27.54,54334,2021-02-21
9015,Sold,13275108,15010895,"10.99Ξ ($20,209)","Feb 14, 2021",10.99,20209,2021-02-14
9016,Sold,0x00d7c9,0xdbed69…,0.50Ξ ($108),"Aug 11, 2019",0.5,108,2019-08-11
9022,Sold,NeonNFT,0xdfce59,"4.99Ξ ($1,756)","Oct 05, 2020",4.99,1756,2020-10-05
9022,Sold,0xb6be4d,NeonNFT,"5.25Ξ ($1,821)","Oct 04, 2020",5.25,1821,2020-10-04
9024,Sold,0xbc081c,13798394,0.15Ξ ($68),"Dec 08, 2017",0.15,68,2017-12-08
9025,Sold,0x27f0e0,0x05f3eb,"23Ξ ($35,696)","Feb 23, 2021",23,35696,2021-02-23
9025,Sold,MrNFT,0x27f0e0,2.14Ξ ($732),"Sep 22, 2020",2.14,732,2020-09-22
9025,Sold,DojiFlip,MrNFT,1.75Ξ ($651),"Sep 20, 2020",1.75,651,2020-09-20
9025,Sold,natealex,DojiFlip,2Ξ ($722),"Sep 16, 2020",2,722,2020-09-16
9025,Sold,0x1a96af,natealex,0.55Ξ ($110),"May 14, 2020",0.55,110,2020-05-14
9026,Sold,11976269,5786847,"20Ξ ($35,348)","Mar 29, 2021",20,35348,2021-03-29
9027,Sold,0xca8fe4,9407303,"19.99Ξ ($41,257)","Apr 08, 2021",19.99,41257,2021-04-08
9028,Sold,jmg,0xce7a9f,"19.99Ξ ($34,923)","Feb 05, 2021",19.99,34923,2021-02-05
9028,Sold,3van.eth,jmg,"13Ξ ($16,650)","Jan 10, 2021",13,16650,2021-01-10
9028,Sold,jmg,evkort,"19.99Ξ ($7,559)","Oct 15, 2020",19.99,7559,2020-10-15
9028,Sold,0xa7eba7,jmg,"15Ξ ($5,550)","Sep 20, 2020",15,5550,2020-09-20
9030,Sold,0x7f3560,0x561786,"5.55Ξ ($6,101)","Jan 12, 2021",5.55,6101,2021-01-12
9030,Sold,jmg,0x7f3560,0.95Ξ ($179),"Feb 03, 2020",0.95,179,2020-02-03
9030,Sold,0x00d7c9,jmg,0.36Ξ ($76),"Aug 09, 2019",0.36,76,2019-08-09
9032,Sold,futurema…,Pixls,0.48Ξ ($142),"Jun 21, 2019",0.48,142,2019-06-21
9032,Sold,0x682c30,futurema…,0.47Ξ ($55),"Jan 21, 2019",0.47,55,2019-01-21
9033,Sold,6827056,2390212,0.50Ξ ($108),"Jul 21, 2017",0.5,108,2017-07-21
9034,Sold,6827056,16745492,0.49Ξ ($102),"Jul 13, 2017",0.49,102,2017-07-13
9035,Sold,6827056,0x00d7c9,0.39Ξ ($96),"Jul 08, 2017",0.39,96,2017-07-08
9040,Sold,0x4b9af5,0xfb60bb,0.93Ξ ($313),"Jul 30, 2020",0.93,313,2020-07-30
9040,Sold,Michel_M…,0x4b9af5,0.71Ξ ($169),"Jul 12, 2020",0.71,169,2020-07-12
9040,Sold,cryptosa…,Michel_M…,1Ξ ($231),"Jun 11, 2020",1,231,2020-06-11
9040,Sold,0x1a96af,cryptosa…,1.09Ξ ($223),"May 25, 2020",1.09,223,2020-05-25
9042,Sold,j1mmy,cryptosa…,"5Ξ ($1,789)","Sep 28, 2020",5,1789,2020-09-28
9042,Sold,Michel_M…,j1mmy,1.49Ξ ($565),"Sep 12, 2020",1.49,565,2020-09-12
9042,Sold,Pranksy,Michel_M…,1.05Ξ ($241),"Jul 02, 2020",1.05,241,2020-07-02
9042,Sold,0xe45df5,Pranksy,0.80Ξ ($108),"Jan 05, 2020",0.8,108,2020-01-05
9043,Sold,0x00d7c9,GtC,0.25Ξ ($45),"Sep 08, 2019",0.25,45,2019-09-08
9046,Sold,11913961,2340107,"30Ξ ($51,550)","Mar 23, 2021",30,51550,2021-03-23
9046,Sold,9094751,3422159,"33Ξ ($53,653)","Feb 25, 2021",33,53653,2021-02-25
9047,Sold,0xbec69d,0x516358,"24.88Ξ ($53,344)","Apr 11, 2021",24.88,53344,2021-04-11
9047,Sold,0xabf107,0xbec69d,"20.48Ξ ($42,695)","Apr 09, 2021",20.48,42695,2021-04-09
9047,Sold,0xb4bb41,0xabf107,"19.99Ξ ($41,320)","Apr 08, 2021",19.99,41320,2021-04-08
9047,Sold,0x033ee7,0xb4bb41,"14.75Ξ ($28,787)","Feb 21, 2021",14.75,28787,2021-02-21
9047,Sold,VonMises,0x033ee7,"3.25Ξ ($1,124)","Sep 24, 2020",3.25,1124,2020-09-24
9047,Sold,0x1d45f1,0xaf5e63,1.10Ξ ($428),"Aug 26, 2020",1.1,428,2020-08-26
9047,Sold,Hemba,0x1d45f1,1Ξ ($383),"Aug 26, 2020",1,383,2020-08-26
9052,Sold,curating…,0xc72aed,"18Ξ ($22,250)","Jan 07, 2021",18,22250,2021-01-07
9055,Sold,6689278,45688,0.25Ξ ($60),"Jul 07, 2017",0.25,60,2017-07-07
9057,Sold,755965,11268359,"38.50Ξ ($79,929)","Apr 09, 2021",38.5,79929,2021-04-09
9058,Sold,6689278,5242424,"75Ξ ($161,007)","Apr 11, 2021",75,161007,2021-04-11
9060,Sold,Dude_Nak…,TokenAng…,0.64Ξ ($121),"Sep 14, 2019",0.64,121,2019-09-14
9060,Sold,0x00d7c9,Dude_Nak…,0.35Ξ ($61),"Apr 20, 2019",0.35,61,2019-04-20
9061,Sold,6689278,14851681,"17Ξ ($33,252)","Feb 19, 2021",17,33252,2021-02-19
9062,Sold,755965,15834214,"41Ξ ($79,546)","Apr 01, 2021",41,79546,2021-04-01
9063,Sold,0x97db27,2929717,"79Ξ ($168,534)","Apr 12, 2021",79,168534,2021-04-12
9063,Sold,0x0b88fd,9952039,"72.50Ξ ($130,776)","Mar 21, 2021",72.5,130776,2021-03-21
9064,Sold,4042394,11844417,"67.99Ξ ($115,071)","Mar 23, 2021",67.99,115071,2021-03-23
9065,Sold,0x6f1174,12702163,"30Ξ ($54,953)","Mar 19, 2021",30,54953,2021-03-19
9065,Sold,0x6611fe,7278964,"23Ξ ($40,752)","Mar 17, 2021",23,40752,2021-03-17
9069,Sold,13275108,6774460,"33.99Ξ ($61,029)","Mar 21, 2021",33.99,61029,2021-03-21
9070,Sold,6689278,9867168,"22.40Ξ ($35,640)","Mar 03, 2021",22.4,35640,2021-03-03
9072,Sold,755965,renaissa…,"23.25Ξ ($36,899)","Mar 25, 2021",23.25,36899,2021-03-25
9075,Sold,0x84c920,0xaae8c5,"22.50Ξ ($38,076)","Feb 24, 2021",22.5,38076,2021-02-24
9075,Sold,0x6611fe,0x84c920,"22Ξ ($34,591)","Feb 24, 2021",22,34591,2021-02-24
9076,Sold,sighduck…,0xb5d13a,"12Ξ ($21,327)","Feb 17, 2021",12,21327,2021-02-17
9076,Sold,0x6611fe,sighduck…,"8.50Ξ ($14,485)","Feb 15, 2021",8.5,14485,2021-02-15
9077,Sold,6689278,2390212,0.66Ξ ($143),"Jul 21, 2017",0.66,143,2017-07-21
9079,Sold,curating…,VonMises,"5.50Ξ ($3,172)","Dec 24, 2020",5.5,3172,2020-12-24
9082,Sold,6689278,2340107,"26.25Ξ ($47,441)","Mar 12, 2021",26.25,47441,2021-03-12
9085,Sold,6689278,6369491,"13.85Ξ ($26,467)","Feb 19, 2021",13.85,26467,2021-02-19
9086,Sold,Alex3422,0x0601d0,"10.50Ξ ($2,159)","May 27, 2020",10.5,2159,2020-05-27
9086,Sold,Shrugs,Alex3422,4.50Ξ ($929),"May 24, 2020",4.5,929,2020-05-24
9086,Sold,0xd8e806,Shrugs,0.50Ξ ($680),"Jan 14, 2018",0.5,680,2018-01-14
9089,Sold,jordanly…,0xf70961,"23Ξ ($37,051)","Feb 24, 2021",23,37051,2021-02-24
9089,Sold,0x13816f,jordanly…,"14.50Ξ ($28,226)","Feb 21, 2021",14.5,28226,2021-02-21
9089,Sold,CPyrc,0x13816f,"3.25Ξ ($1,147)","Sep 27, 2020",3.25,1147,2020-09-27
9089,Sold,0x3ba9cd,CPyrc,"3.15Ξ ($1,108)","Sep 27, 2020",3.15,1108,2020-09-27
9089,Sold,Carlini8,0x3ba9cd,2.75Ξ ($948),"Sep 25, 2020",2.75,948,2020-09-25
9089,Sold,VonMises,Carlini8,1.75Ξ ($658),"Sep 14, 2020",1.75,658,2020-09-14
9089,Sold,Alex3422,VonMises,0.69Ξ ($130),"Apr 24, 2020",0.69,130,2020-04-24
9089,Sold,ross_VRO…,Alex3422,0.59Ξ ($96),"Jan 16, 2020",0.59,96,2020-01-16
9089,Sold,Goop,ross_VRO…,0.54Ξ ($77),"Jan 07, 2020",0.54,77,2020-01-07
9089,Sold,0x6611fe,Goop,0.52Ξ ($74),"Jan 07, 2020",0.52,74,2020-01-07
9090,Sold,0x6611fe,charley,"9.50Ξ ($16,986)","Feb 16, 2021",9.5,16986,2021-02-16
9094,Sold,ross_VRO…,bibdieuf…,0.59Ξ ($100),"Jan 17, 2020",0.59,100,2020-01-17
9094,Sold,0x6611fe,ross_VRO…,0.54Ξ ($77),"Jan 07, 2020",0.54,77,2020-01-07
9095,Sold,0xff26da,pelvis.e…,"8.72Ξ ($15,106)","Feb 15, 2021",8.72,15106,2021-02-15
9095,Sold,0x6611fe,0xff26da,0.47Ξ ($73),"Jan 04, 2019",0.47,73,2019-01-04
9099,Sold,0xabf107,0x809e1e,"22Ξ ($42,049)","Mar 14, 2021",22,42049,2021-03-14
9099,Sold,wookie.e…,0xabf107,"21Ξ ($37,356)","Mar 11, 2021",21,37356,2021-03-11
9099,Sold,0x6611fe,wookie.e…,"20.75Ξ ($35,684)","Mar 08, 2021",20.75,35684,2021-03-08
9101,Sold,6689278,stazie,0.49Ξ ($125),"May 30, 2019",0.49,125,2019-05-30
9102,Sold,6827056,6689278,0.49Ξ ($132),"Jul 04, 2017",0.49,132,2017-07-04
9103,Sold,755965,13283343,"20.25Ξ ($43,421)","Apr 10, 2021",20.25,43421,2021-04-10
9105,Sold,6827056,0x00d7c9,0.39Ξ ($96),"Jul 08, 2017",0.39,96,2017-07-08
9106,Sold,1278319,659510,"26.88Ξ ($42,745)","Mar 04, 2021",26.88,42745,2021-03-04
9106,Sold,16238729,1278319,"21.90Ξ ($40,660)","Feb 22, 2021",21.9,40660,2021-02-22
9106,Sold,1278319,16238729,"21.88Ξ ($41,940)","Feb 22, 2021",21.88,41940,2021-02-22
9106,Sold,7293485,1278319,"18.88Ξ ($36,888)","Feb 21, 2021",18.88,36888,2021-02-21
9107,Sold,shilpixe…,7478,1Ξ ($211),"May 19, 2020",1,211,2020-05-19
9110,Sold,Hemba,0xf40b3d,2.30Ξ ($767),"Sep 24, 2020",2.3,767,2020-09-24
9113,Sold,328685,11387433,"6.90Ξ ($9,529)","Jan 31, 2021",6.9,9529,2021-01-31
9113,Sold,13401139,328685,"4.99Ξ ($6,233)","Jan 27, 2021",4.99,6233,2021-01-27
9114,Sold,cryptosa…,artofrjm,0.94Ξ ($349),"Sep 11, 2020",0.94,349,2020-09-11
9114,Sold,Pixls,cryptosa…,1.10Ξ ($225),"May 25, 2020",1.1,225,2020-05-25
9114,Sold,0x1a96af,Pixls,1.03Ξ ($210),"May 24, 2020",1.03,210,2020-05-24
9117,Sold,0xd6d7ea,0x65ba94,"21.50Ξ ($32,535)","Feb 27, 2021",21.5,32535,2021-02-27
9117,Sold,Pranksy,0xd6d7ea,"3.99Ξ ($4,981)","Jan 23, 2021",3.99,4981,2021-01-23
9117,Sold,0xa2af28…,0x5b331e,"5Ξ ($5,492)","Jan 06, 2021",5,5492,2021-01-06
9117,Sold,0xb40dac,0xa2af28…,"3.45Ξ ($1,220)","Sep 27, 2020",3.45,1220,2020-09-27
9117,Sold,0x5aaeb9,0xb40dac,2.60Ξ ($913),"Sep 24, 2020",2.6,913,2020-09-24
9117,Sold,Sylveste…,0x5aaeb9,2.45Ξ ($848),"Sep 24, 2020",2.45,848,2020-09-24
9117,Sold,Korniej,Sylveste…,1.90Ξ ($649),"Sep 23, 2020",1.9,649,2020-09-23
9117,Sold,Dude_Nak…,Korniej,1.99Ξ ($735),"Sep 20, 2020",1.99,735,2020-09-20
9117,Sold,OnlyToas…,Dude_Nak…,1.88Ξ ($690),"Sep 15, 2020",1.88,690,2020-09-15
9117,Sold,0xf28820,OnlyToas…,1.90Ξ ($717),"Sep 15, 2020",1.9,717,2020-09-15
9117,Sold,CPyrc,0xf28820,1.45Ξ ($545),"Sep 14, 2020",1.45,545,2020-09-14
9117,Sold,Pranksy,CPyrc,1.25Ξ ($459),"Sep 11, 2020",1.25,459,2020-09-11
9117,Sold,blocktop…,Pranksy,1.25Ξ ($455),"Sep 11, 2020",1.25,455,2020-09-11
9117,Sold,0xe45df5,0x408061,0.80Ξ ($154),"Feb 02, 2020",0.8,154,2020-02-02
9123,Sold,55241,ppp_ppp,0.25Ξ ($53),"Aug 09, 2019",0.25,53,2019-08-09
9124,Sold,juggerna…,Alley,0.25Ξ ($44),"Oct 04, 2019",0.25,44,2019-10-04
9125,Sold,Slats_et…,0x304288,"39.90Ξ ($76,806)","Feb 21, 2021",39.9,76806,2021-02-21
9125,Sold,sov,Slats_et…,"6Ξ ($1,235)","May 27, 2020",6,1235,2020-05-27
9126,Sold,0xc9a3fc,0xfb9a27,"28Ξ ($45,911)","Feb 24, 2021",28,45911,2021-02-24
9126,Sold,0x3e17fa,0x327b5d,"8.80Ξ ($16,025)","Feb 16, 2021",8.8,16025,2021-02-16
9126,Sold,0x81ed84,0x3e17fa,"6Ξ ($2,111)","Sep 27, 2020",6,2111,2020-09-27
9126,Sold,0xab96b9,0x81ed84,3Ξ ($963),"Jul 28, 2020",3,963,2020-07-28
9126,Sold,Pranksy,0xab96b9,1.99Ξ ($454),"Jun 19, 2020",1.99,454,2020-06-19
9126,Sold,0x00d7c9,Pranksy,0.25Ξ ($45),"Sep 02, 2019",0.25,45,2019-09-02
9131,Sold,6827056,5966219,0.15Ξ ($46),"Jun 24, 2017",0.15,46,2017-06-24
9132,Sold,kyloren,CryptoPa…,"4.90Ξ ($5,214)","Jan 12, 2021",4.9,5214,2021-01-12
9132,Sold,redlione…,kyloren,1.95Ξ ($734),"Sep 15, 2020",1.95,734,2020-09-15
9132,Sold,natealex,redlione…,1.25Ξ ($468),"Sep 12, 2020",1.25,468,2020-09-12
9132,Sold,0x3a8441,natealex,1Ξ ($364),"Sep 11, 2020",1,364,2020-09-11
9138,Sold,0x1f5a39,0x6611fe,"24.99Ξ ($44,612)","Mar 15, 2021",24.99,44612,2021-03-15
9138,Sold,ross_VRO…,MrNFT,2.77Ξ ($963),"Sep 21, 2020",2.77,963,2020-09-21
9138,Sold,0x7d705d,ross_VRO…,0.98Ξ ($197),"May 16, 2020",0.98,197,2020-05-16
9138,Sold,Pranksy,0x7d705d,0.55Ξ ($74),"Jan 04, 2020",0.55,74,2020-01-04
9138,Sold,0x00d7c9,Pranksy,0.25Ξ ($45),"Sep 02, 2019",0.25,45,2019-09-02
9140,Sold,11976269,13590885,"4.59Ξ ($5,497)","Jan 06, 2021",4.59,5497,2021-01-06
9141,Sold,8702240,8704847,"20.49Ξ ($37,144)","Mar 11, 2021",20.49,37144,2021-03-11
9141,Sold,1700403,8702240,"19Ξ ($33,798)","Mar 11, 2021",19,33798,2021-03-11
9142,Sold,Shrugs,charley,"8Ξ ($14,435)","Feb 14, 2021",8,14435,2021-02-14
9142,Sold,0x00d7c9,Shrugs,0.10Ξ ($28),"Aug 15, 2018",0.1,28,2018-08-15
9143,Sold,0x809e1e,4180677,"16.33Ξ ($32,510)","Feb 20, 2021",16.33,32510,2021-02-20
9143,Sold,0x3d826e,8429086,"8Ξ ($14,696)","Feb 14, 2021",8,14696,2021-02-14
9143,Sold,0x00d7c9,4031086,0.10Ξ ($72),"Dec 28, 2017",0.1,72,2017-12-28
9145,Sold,0x577ebc,VonMises,"19Ξ ($32,751)","Feb 10, 2021",19,32751,2021-02-10
9149,Sold,0xa1179f,BlackBox…,2.50Ξ ($471),"May 10, 2020",2.5,471,2020-05-10
9149,Sold,0x00d7c9,0xa1179f,0.50Ξ ($87),"Apr 18, 2019",0.5,87,2019-04-18
9150,Sold,11551919,12717655,"30Ξ ($58,781)","Feb 21, 2021",30,58781,2021-02-21
9152,Sold,0x7a612b,0x0e9aed,"22.99Ξ ($49,291)","Apr 11, 2021",22.99,49291,2021-04-11
9152,Sold,0x62bdc6,0x7a612b,"19.97Ξ ($40,012)","Apr 07, 2021",19.97,40012,2021-04-07
9152,Sold,0x167e00,0x22fa8c,"23Ξ ($39,894)","Feb 22, 2021",23,39894,2021-02-22
9152,Sold,QueenCry…,0x167e00,"5.90Ξ ($7,557)","Jan 10, 2021",5.9,7557,2021-01-10
9152,Sold,0x470e9b,QueenCry…,0.60Ξ ($80),"Jan 03, 2020",0.6,80,2020-01-03
9153,Sold,0x196a3d,0xe9e7b8,"3.50Ξ ($1,771)","Nov 20, 2020",3.5,1771,2020-11-20
9153,Sold,0x20e386,0x196a3d,1.20Ξ ($465),"Sep 13, 2020",1.2,465,2020-09-13
9155,Sold,0x1d45f1,MattKane…,"4.75Ξ ($5,798)","Jan 08, 2021",4.75,5798,2021-01-08
9155,Sold,kxbxlt,Unknown7…,0.79Ξ ($307),"Aug 04, 2020",0.79,307,2020-08-04
9155,Sold,0x1a96af,0x5fd716,1.25Ξ ($298),"Jun 07, 2020",1.25,298,2020-06-07
9157,Sold,0x2aa720,0x568cf5,"5.70Ξ ($2,016)","Sep 29, 2020",5.7,2016,2020-09-29
9157,Sold,GoWest23,0x2aa720,"5.48Ξ ($1,944)","Sep 29, 2020",5.48,1944,2020-09-29
9157,Sold,0xb6be4d,GoWest23,0.40Ξ ($69),"May 06, 2019",0.4,69,2019-05-06
9158,Sold,0xe369a8,12189147,"10Ξ ($17,635)","Feb 15, 2021",10,17635,2021-02-15
9158,Sold,0xd93033,14903720,"8Ξ ($14,014)","Feb 15, 2021",8,14014,2021-02-15
9159,Sold,0x0e9aed,0x906e55,"79.99Ξ ($171,255)","Apr 11, 2021",79.99,171255,2021-04-11
9159,Sold,0x0a4eaf…,0x0e9aed,"56.50Ξ ($120,670)","Apr 11, 2021",56.5,120670,2021-04-11
9159,Sold,0x00d7c9,0x0a4eaf…,0.29Ξ ($60),"Jul 10, 2017",0.29,60,2017-07-10
9160,Sold,Pranksy,0x2e5ccf,"100Ξ ($191,680)","Feb 22, 2021",100,191680,2021-02-22
9160,Sold,EliteCat…,Pranksy,"71Ξ ($128,979)","Feb 15, 2021",71,128979,2021-02-15
9160,Sold,jmg,GoWest23,"7.99Ξ ($1,027)","Mar 22, 2020",7.99,1027,2020-03-22
9160,Sold,Zieg,jmg,1.90Ξ ($278),"Feb 18, 2019",1.9,278,2019-02-18
9162,Sold,Carlini8,0x5bb6e7,"7.50Ξ ($9,677)","Jan 27, 2021",7.5,9677,2021-01-27
9162,Sold,zazpower…,Carlini8,"5.99Ξ ($3,850)","Dec 26, 2020",5.99,3850,2020-12-26
9162,Sold,Michel_M…,zazpower…,"3.49Ξ ($1,241)","Sep 29, 2020",3.49,1241,2020-09-29
9162,Sold,Pranksy,Michel_M…,"3.29Ξ ($1,118)","Sep 23, 2020",3.29,1118,2020-09-23
9162,Sold,natealex,evkort,2.49Ξ ($964),"Sep 13, 2020",2.49,964,2020-09-13
9162,Sold,scalynel…,natealex,1.40Ξ ($294),"May 20, 2020",1.4,294,2020-05-20
9162,Sold,CryptoCo…,scalynel…,0.90Ξ ($123),"Jan 10, 2020",0.9,123,2020-01-10
9162,Sold,0x00d7c9,CryptoCo…,0.10Ξ ($53),"Jun 11, 2018",0.1,53,2018-06-11
9163,Sold,0xb6be4d,0x_NFT,"3.40Ξ ($1,172)","Sep 25, 2020",3.4,1172,2020-09-25
9163,Sold,Hemba,0xb6be4d,1.10Ξ ($444),"Aug 24, 2020",1.1,444,2020-08-24
9164,Sold,0xf1b658,0x517fe8,"13Ξ ($24,841)","Feb 19, 2021",13,24841,2021-02-19
9164,Sold,Pranksy,0xf1b658,"12.99Ξ ($23,590)","Feb 14, 2021",12.99,23590,2021-02-14
9164,Sold,0x577ebc,Pranksy,"12.60Ξ ($20,265)","Feb 04, 2021",12.6,20265,2021-02-04
9167,Sold,MadMax,0x4e0030,"8.40Ξ ($11,024)","Jan 27, 2021",8.4,11024,2021-01-27
9167,Sold,0xca8fe4,MadMax,"7.50Ξ ($7,603)","Jan 04, 2021",7.5,7603,2021-01-04
9168,Sold,6249972,4556373,"35.50Ξ ($52,682)","Mar 02, 2021",35.5,52682,2021-03-02
9170,Sold,14233651,5111856,"10Ξ ($17,518)","Feb 15, 2021",10,17518,2021-02-15
9171,Sold,14207887,15805808,"28.50Ξ ($47,004)","Feb 24, 2021",28.5,47004,2021-02-24
9171,Sold,147191,14207887,"24.80Ξ ($44,705)","Feb 22, 2021",24.8,44705,2021-02-22
9171,Sold,9399070,147191,"21.75Ξ ($40,843)","Feb 22, 2021",21.75,40843,2021-02-22
9171,Sold,13275108,13643953,"6.50Ξ ($11,397)","Feb 09, 2021",6.5,11397,2021-02-09
9173,Sold,6249972,8844177,"30Ξ ($47,857)","Mar 03, 2021",30,47857,2021-03-03
9174,Sold,0x491be7,0x22fa8c,"22.88Ξ ($39,686)","Feb 22, 2021",22.88,39686,2021-02-22
9174,Sold,cryptoke…,0x491be7,"5.45Ξ ($1,948)","Sep 29, 2020",5.45,1948,2020-09-29
9174,Sold,Pranksy,cryptoke…,"4.99Ξ ($1,812)","Sep 28, 2020",4.99,1812,2020-09-28
9174,Sold,0x5e7ee9,Pranksy,"3.90Ξ ($1,395)","Sep 28, 2020",3.9,1395,2020-09-28
9174,Sold,0xb40dac,0x5e7ee9,"3.60Ξ ($1,273)","Sep 26, 2020",3.6,1273,2020-09-26
9174,Sold,Hemba,0xb40dac,"3Ξ ($1,054)","Sep 24, 2020",3,1054,2020-09-24
9175,Sold,0x00d7c9,Pixls,0.35Ξ ($61),"Apr 20, 2019",0.35,61,2019-04-20
9176,Sold,0xca8fe4,486676,"18.50Ξ ($33,417)","Mar 29, 2021",18.5,33417,2021-03-29
9178,Sold,13275108,15516489,"10.50Ξ ($18,718)","Feb 15, 2021",10.5,18718,2021-02-15
9179,Sold,0x19ac60,0xca11d1,"4.99Ξ ($5,379)","Jan 13, 2021",4.99,5379,2021-01-13
9180,Sold,0x00d7c9,Ajiyl,0.10Ξ ($46),"Dec 03, 2017",0.1,46,2017-12-03
9181,Sold,shilpixe…,0x2db1c4,0.50Ξ ($89),"Nov 18, 2018",0.5,89,2018-11-18
9182,Sold,Hemba,0x9b35db,1.10Ξ ($422),"Aug 26, 2020",1.1,422,2020-08-26
9183,Sold,6689278,PB,1.80Ξ ($377),"May 17, 2020",1.8,377,2020-05-17
9185,Sold,12586027,sov,0.19Ξ ($59),"Aug 12, 2017",0.19,59,2017-08-12
9187,Sold,ManOverb…,0x25b606,"13.50Ξ ($25,751)","Feb 18, 2021",13.5,25751,2021-02-18
9187,Sold,EliteCat…,ManOverb…,"9.49Ξ ($17,109)","Feb 17, 2021",9.49,17109,2021-02-17
9187,Sold,0xb6be4d,GoWest23,0.40Ξ ($69),"May 06, 2019",0.4,69,2019-05-06
9188,Sold,0x5b098b,957165,"37.60Ξ ($80,500)","Apr 11, 2021",37.6,80500,2021-04-11
9189,Sold,0x7c00c9…,0x8b51c1,"13.37Ξ ($26,571)","Feb 20, 2021",13.37,26571,2021-02-20
9189,Sold,Hemba,0x7c00c9…,0.18Ξ ($17),"Dec 07, 2018",0.18,17,2018-12-07
9192,Sold,0x2b8e9d,0xdce099,"12.65Ξ ($24,323)","Feb 19, 2021",12.65,24323,2021-02-19
9192,Sold,Korniej,0x2b8e9d,"5.90Ξ ($7,429)","Jan 24, 2021",5.9,7429,2021-01-24
9192,Sold,ross_VRO…,Korniej,2.45Ξ ($918),"Sep 21, 2020",2.45,918,2020-09-21
9192,Sold,Hemba,ross_VRO…,0.90Ξ ($186),"May 17, 2020",0.9,186,2020-05-17
9193,Sold,Crypto_P…,0x42f913,"32.99Ξ ($68,544)","Apr 08, 2021",32.99,68544,2021-04-08
9193,Sold,0xa1179f,GoWest23,2.50Ξ ($506),"May 14, 2020",2.5,506,2020-05-14
9193,Sold,0x00d7c9,0xa1179f,0.50Ξ ($87),"Apr 18, 2019",0.5,87,2019-04-18
9194,Sold,Pranksy,0x052564,"20.50Ξ ($40,426)","Apr 01, 2021",20.5,40426,2021-04-01
9194,Sold,0x5b098b,Pranksy,"13.50Ξ ($22,545)","Feb 06, 2021",13.5,22545,2021-02-06
9195,Sold,55241,9416810,0.10Ξ ($59),"May 26, 2018",0.1,59,2018-05-26
9197,Sold,Carlini8,gaus,2.49Ξ ($869),"Sep 25, 2020",2.49,869,2020-09-25
9197,Sold,ChrisR,Carlini8,1.49Ξ ($560),"Sep 14, 2020",1.49,560,2020-09-14
9197,Sold,0x231707,Pranksy,0.92Ξ ($187),"May 22, 2020",0.92,187,2020-05-22
9198,Sold,6689278,10175861,"40Ξ ($69,913)","Mar 13, 2021",40,69913,2021-03-13
9203,Sold,0xa7c983,0xaf5e63,"9.99Ξ ($2,091)","Apr 29, 2020",9.99,2091,2020-04-29
9203,Sold,0xf5099e,0xa7c983,5Ξ ($979),"May 13, 2019",5,979,2019-05-13
9203,Sold,0x5462de,0xa0a59c,1Ξ ($269),"Jul 04, 2017",1,269,2017-07-04
9204,Sold,Party,0xdfce59,"4.20Ξ ($1,471)","Oct 09, 2020",4.2,1471,2020-10-09
9204,Sold,Lmao,Party,"3.52Ξ ($1,236)","Oct 08, 2020",3.52,1236,2020-10-08
9204,Sold,evkort,Lmao,"5.50Ξ ($1,946)","Oct 05, 2020",5.5,1946,2020-10-05
9204,Sold,GoWest23,evkort,"5.24Ξ ($1,897)","Sep 28, 2020",5.24,1897,2020-09-28
9204,Sold,0xb6be4d,GoWest23,0.45Ξ ($78),"May 06, 2019",0.45,78,2019-05-06
9205,Sold,Theodora,0xcc7357,"36.82Ξ ($69,487)","Mar 13, 2021",36.82,69487,2021-03-13
9205,Sold,Michel_M…,Theodora,1.10Ξ ($462),"Aug 31, 2020",1.1,462,2020-08-31
9205,Sold,0x61e7e7,Michel_M…,1.38Ξ ($322),"Jun 25, 2020",1.38,322,2020-06-25
9205,Sold,0x1a96af,0x61e7e7,1.95Ξ ($393),"May 26, 2020",1.95,393,2020-05-26
9207,Sold,15808747,16745492,0.25Ξ ($70),"Jun 27, 2017",0.25,70,2017-06-27
9208,Sold,8350887,1044256,0.16Ξ ($138),"Jan 02, 2018",0.16,138,2018-01-02
9208,Sold,55241,8350887,0.10Ξ ($81),"Dec 19, 2017",0.1,81,2017-12-19
9210,Sold,11551919,1355393,"20Ξ ($39,817)","Feb 20, 2021",20,39817,2021-02-20
9211,Sold,13214716,15003820,"26.40Ξ ($38,494)","Mar 05, 2021",26.4,38494,2021-03-05
9211,Sold,5858674,13214716,"35Ξ ($57,724)","Feb 24, 2021",35,57724,2021-02-24
9211,Sold,52816,5858674,"17Ξ ($32,637)","Feb 19, 2021",17,32637,2021-02-19
9213,Sold,55241,Pixls,0.30Ξ ($66),"Jul 19, 2019",0.3,66,2019-07-19
9214,Sold,4042394,2340107,"44.99Ξ ($76,144)","Mar 23, 2021",44.99,76144,2021-03-23
9216,Sold,Deeze,0x076d14,"29.89Ξ ($54,625)","Mar 29, 2021",29.89,54625,2021-03-29
9216,Sold,0x6ec30f,Deeze,"29.50Ξ ($54,671)","Mar 20, 2021",29.5,54671,2021-03-20
9216,Sold,Deeze,0x6ec30f,"30Ξ ($52,569)","Mar 16, 2021",30,52569,2021-03-16
9216,Sold,VonMises,Deeze,"9.99Ξ ($17,349)","Feb 09, 2021",9.99,17349,2021-02-09
9216,Sold,shilpixe…,VonMises,1.50Ξ ($290),"Apr 25, 2020",1.5,290,2020-04-25
9217,Sold,1665597,8010080,"4.75Ξ ($1,778)","Oct 12, 2020",4.75,1778,2020-10-12
9217,Sold,2155398,1665597,1.20Ξ ($465),"Sep 13, 2020",1.2,465,2020-09-13
9218,Sold,EliteCat…,0x2ecbb9,"8.31Ξ ($15,034)","Feb 14, 2021",8.31,15034,2021-02-14
9218,Sold,0xb6be4d,GoWest23,0.35Ξ ($61),"May 06, 2019",0.35,61,2019-05-06
9219,Sold,ross_VRO…,Novo311,1.70Ξ ($352),"May 17, 2020",1.7,352,2020-05-17
9219,Sold,jmg,ross_VRO…,0.59Ξ ($158),"May 26, 2019",0.59,158,2019-05-26
9219,Sold,0x00d7c9,jmg,0.30Ξ ($52),"May 06, 2019",0.3,52,2019-05-06
9220,Sold,11599876,2063724,"14.40Ξ ($25,938)","Feb 16, 2021",14.4,25938,2021-02-16
9220,Sold,13275108,11599876,"11.50Ξ ($21,027)","Feb 14, 2021",11.5,21027,2021-02-14
9224,Sold,0xfb077c,14215174,0.30Ξ ($65),"Jul 21, 2017",0.3,65,2017-07-21
9225,Sold,0xc9b7f8,0x465126,"18Ξ ($36,590)","Apr 08, 2021",18,36590,2021-04-08
9225,Sold,wookie.e…,0xc9b7f8,"22.50Ξ ($41,046)","Mar 09, 2021",22.5,41046,2021-03-09
9225,Sold,Pranksy,ManOverb…,"5.35Ξ ($3,755)","Dec 28, 2020",5.35,3755,2020-12-28
9225,Sold,0x3d826e,Pranksy,"3Ξ ($1,906)","Dec 26, 2020",3,1906,2020-12-26
9225,Sold,0x8234be,0x3d826e,0.10Ξ ($72),"Dec 28, 2017",0.1,72,2017-12-28
9226,Sold,0x19ac60,0xd3e2e7,"5.20Ξ ($5,780)","Jan 13, 2021",5.2,5780,2021-01-13
9228,Sold,EliteCat…,0x77a1a2,"15.50Ξ ($25,615)","Mar 07, 2021",15.5,25615,2021-03-07
9228,Sold,0x682c30,GoWest23,0.75Ξ ($121),"Jan 16, 2020",0.75,121,2020-01-16
9229,Sold,TokenAng…,0x3dde27,1.50Ξ ($248),"Jan 15, 2020",1.5,248,2020-01-15
9229,Sold,0x00d7c9,TokenAng…,0.50Ξ ($123),"Jun 11, 2019",0.5,123,2019-06-11
9233,Sold,0xd5bc69,0xd863c0,"17.98Ξ ($30,354)","Mar 28, 2021",17.98,30354,2021-03-28
9233,Sold,0xd8bcd6,0xd5bc69,"15Ξ ($29,427)","Feb 21, 2021",15,29427,2021-02-21
9233,Sold,Goop,0xd8bcd6,0.68Ξ ($127),"May 10, 2020",0.68,127,2020-05-10
9233,Sold,0xb6be4d,Goop,0.55Ξ ($78),"Jan 08, 2020",0.55,78,2020-01-08
9234,Sold,ark1,0x7f3560,0.28Ξ ($45),"Nov 21, 2019",0.28,45,2019-11-21
9234,Sold,0x00d7c9,ark1,0.25Ξ ($47),"Sep 15, 2019",0.25,47,2019-09-15
9235,Sold,jmg,uxt,0.79Ξ ($99),"Nov 22, 2018",0.79,99,2018-11-22
9235,Sold,0x515a82,0x00bd3a,0.35Ξ ($97),"Jul 03, 2017",0.35,97,2017-07-03
9239,Sold,pleyuh.e…,0x00a1b4,"24Ξ ($41,768)","Mar 08, 2021",24,41768,2021-03-08
9239,Sold,0x99b884,pleyuh.e…,"8.50Ξ ($14,571)","Feb 08, 2021",8.5,14571,2021-02-08
9240,Sold,0x577ebc,3420852,"69.99Ξ ($124,336)","Mar 16, 2021",69.99,124336,2021-03-16
9241,Sold,0xf138eb,16745492,0.18Ξ ($54),"Jun 29, 2017",0.18,54,2017-06-29
9243,Sold,Michel_M…,gaus,2.45Ξ ($855),"Sep 25, 2020",2.45,855,2020-09-25
9243,Sold,0x11c9a7,Michel_M…,2.16Ξ ($747),"Sep 24, 2020",2.16,747,2020-09-24
9243,Sold,Carlini8,0x11c9a7,2Ξ ($642),"Sep 23, 2020",2,642,2020-09-23
9243,Sold,Hemba,Carlini8,1.45Ξ ($545),"Sep 14, 2020",1.45,545,2020-09-14
9245,Sold,valko.et…,0x4edaa8,"42.50Ξ ($67,210)","Mar 25, 2021",42.5,67210,2021-03-25
9245,Sold,0xf29711,valko.et…,"38.99Ξ ($70,285)","Feb 22, 2021",38.99,70285,2021-02-22
9245,Sold,j1mmy,evkort,"5Ξ ($1,922)","Oct 13, 2020",5,1922,2020-10-13
9245,Sold,Pranksy,j1mmy,1.49Ξ ($312),"May 24, 2020",1.49,312,2020-05-24
9245,Sold,GtC,Pranksy,0.55Ξ ($79),"Jan 11, 2020",0.55,79,2020-01-11
9245,Sold,0x00d7c9,GtC,0.25Ξ ($45),"Sep 08, 2019",0.25,45,2019-09-08
9247,Sold,0x33c265,10175861,"19.50Ξ ($35,573)","Mar 09, 2021",19.5,35573,2021-03-09
9247,Sold,0x19f233,3392101,"19Ξ ($33,120)","Mar 08, 2021",19,33120,2021-03-08
9248,Sold,6471110,1975358,"29.97Ξ ($54,654)","Mar 19, 2021",29.97,54654,2021-03-19
9248,Sold,1471195,6471110,"27Ξ ($48,221)","Mar 15, 2021",27,48221,2021-03-15
9249,Sold,0xb155c5,0x82e611,"29Ξ ($43,821)","Mar 05, 2021",29,43821,2021-03-05
9249,Sold,opal.eth,0xb155c5,"23Ξ ($32,913)","Mar 01, 2021",23,32913,2021-03-01
9249,Sold,0x5ad2d7,opal.eth,"14.99Ξ ($27,666)","Feb 17, 2021",14.99,27666,2021-02-17
9249,Sold,0x99b884,0x5ad2d7,"6Ξ ($10,309)","Feb 08, 2021",6,10309,2021-02-08
9250,Sold,0x624394,0x5e7ab9,"5.99Ξ ($2,143)","Sep 29, 2020",5.99,2143,2020-09-29
9250,Sold,GoWest23,0x624394,"5.77Ξ ($2,041)","Sep 29, 2020",5.77,2041,2020-09-29
9250,Sold,Pixls,GoWest23,0.48Ξ ($83),"May 06, 2019",0.48,83,2019-05-06
9250,Sold,0x470e9b,Pixls,0.23Ξ ($21),"Dec 08, 2018",0.23,21,2018-12-08
9251,Sold,0x00d7c9,sov,0.10Ξ ($29),"Oct 28, 2017",0.1,29,2017-10-28
9252,Sold,0xb73d34,0xa4ba53,"32Ξ ($61,469)","Apr 01, 2021",32,61469,2021-04-01
9252,Sold,bacchus.…,0xb73d34,"26Ξ ($47,208)","Mar 19, 2021",26,47208,2021-03-19
9252,Sold,0x0713a6,bacchus.…,"9.80Ξ ($13,534)","Jan 31, 2021",9.8,13534,2021-01-31
9252,Sold,jmg,0x0713a6,0.94Ξ ($190),"May 17, 2020",0.94,190,2020-05-17
9252,Sold,Slacktid…,jmg,0.30Ξ ($56),"Nov 04, 2019",0.3,56,2019-11-04
9252,Sold,0x830c91,0x976b59,0.25Ξ ($58),"Sep 29, 2018",0.25,58,2018-09-29
9253,Sold,0xf0f068…,0xaf5e63,1.50Ξ ($319),"May 02, 2020",1.5,319,2020-05-02
9253,Sold,0x61e7e7,0xf0f068…,1.35Ξ ($192),"Jan 06, 2020",1.35,192,2020-01-06
9253,Sold,0x00d7c9,0x61e7e7,0.70Ξ ($172),"Jun 11, 2019",0.7,172,2019-06-11
9254,Sold,0xca8fe4,11643633,"22Ξ ($36,711)","Mar 28, 2021",22,36711,2021-03-28
9258,Sold,niwin,0xe9581f,"50Ξ ($96,248)","Feb 21, 2021",50,96248,2021-02-21
9258,Sold,0xca8fe4,niwin,"28Ξ ($51,532)","Feb 14, 2021",28,51532,2021-02-14
9259,Sold,Hemba,0x98c488,0.70Ξ ($141),"May 17, 2020",0.7,141,2020-05-17
9260,Sold,0xce3ecc,0xdef4ed,"21Ξ ($44,230)","Apr 12, 2021",21,44230,2021-04-12
9260,Sold,0xe754d1,gaus,"2.95Ξ ($1,043)","Sep 26, 2020",2.95,1043,2020-09-26
9260,Sold,Pranksy,0xe754d1,2.89Ξ ($994),"Sep 25, 2020",2.89,994,2020-09-25
9260,Sold,Hemba,Pranksy,2.30Ξ ($796),"Sep 24, 2020",2.3,796,2020-09-24
9261,Sold,0x62bdc6,jmg,"18.47Ξ ($38,178)","Apr 08, 2021",18.47,38178,2021-04-08
9261,Sold,shilpixe…,0x62bdc6,"17Ξ ($33,877)","Apr 07, 2021",17,33877,2021-04-07
9263,Sold,EliteCat…,0x62e1d5,"8.39Ξ ($14,796)","Feb 15, 2021",8.39,14796,2021-02-15
9263,Sold,0xb6be4d,GoWest23,0.35Ξ ($61),"May 06, 2019",0.35,61,2019-05-06
9265,Sold,0x5b098b,13401139,2.25Ξ ($587),"Jul 01, 2017",2.25,587,2017-07-01
9266,Sold,4438175,0x42f7c5,"4.51Ξ ($5,790)","Jan 27, 2021",4.51,5790,2021-01-27
9266,Sold,22272,0x43b89f,0.10Ξ ($35),"Aug 28, 2017",0.1,35,2017-08-28
9270,Sold,Pranksy,robers,"5.99Ξ ($4,466)","Dec 31, 2020",5.99,4466,2020-12-31
9270,Sold,0x3d826e,Pranksy,"4Ξ ($2,542)","Dec 26, 2020",4,2542,2020-12-26
9270,Sold,Zieg,0x3d826e,0.19Ξ ($136),"Dec 28, 2017",0.19,136,2017-12-28
9271,Sold,0xdcf227,sumrtime…,"9.55Ξ ($17,401)","Feb 15, 2021",9.55,17401,2021-02-15
9271,Sold,0x8bb4f3,0xdcf227,"7.80Ξ ($10,241)","Feb 01, 2021",7.8,10241,2021-02-01
9271,Sold,TheNat,0x8bb4f3,"6Ξ ($8,181)","Jan 26, 2021",6,8181,2021-01-26
9271,Sold,0xace239,TheNat,"4.79Ξ ($1,685)","Sep 27, 2020",4.79,1685,2020-09-27
9271,Sold,0xb6be4d,0x87e225,0.35Ξ ($53),"Jan 07, 2019",0.35,53,2019-01-07
9272,Sold,0x1a4d11,😎😎😎.e…,"23.50Ξ ($41,077)","Mar 12, 2021",23.5,41077,2021-03-12
9272,Sold,0x5f5df4,0x1a4d11,"21.50Ξ ($39,569)","Mar 11, 2021",21.5,39569,2021-03-11
9274,Sold,13275108,1984289,"9.50Ξ ($16,935)","Feb 15, 2021",9.5,16935,2021-02-15
9275,Sold,0x5b098b,0x7ccd2e,"23.70Ξ ($50,675)","Apr 11, 2021",23.7,50675,2021-04-11
9275,Sold,0x0a4eaf…,0x5b098b,"26Ξ ($43,060)","Feb 25, 2021",26,43060,2021-02-25
9279,Sold,5331586,45688,0.28Ξ ($77),"Jul 03, 2017",0.28,77,2017-07-03
9280,Sold,straybit…,0x6611fe,"6.75Ξ ($1,816)","Jul 04, 2017",6.75,1816,2017-07-04
9281,Sold,0xe4c479,itsfine,"2.90Ξ ($1,022)","Sep 26, 2020",2.9,1022,2020-09-26
9281,Sold,Hemba,0xe4c479,"3.25Ξ ($1,139)","Sep 25, 2020",3.25,1139,2020-09-25
9284,Sold,5791640,8010080,"5Ξ ($1,872)","Oct 12, 2020",5,1872,2020-10-12
9285,Sold,0x00d7c9,3112815,1Ξ ($206),"Aug 10, 2019",1,206,2019-08-10
9286,Sold,16033653,5739293,"25Ξ ($46,032)","Mar 30, 2021",25,46032,2021-03-30
9286,Sold,55241,16033653,0.10Ξ ($46),"Dec 03, 2017",0.1,46,2017-12-03
9289,Sold,0xc1e42f,0x568cf5,"5.69Ξ ($2,066)","Sep 28, 2020",5.69,2066,2020-09-28
9289,Sold,sov,0xc1e42f,"4Ξ ($1,423)","Sep 27, 2020",4,1423,2020-09-27
9292,Sold,ddaavvee,0x1f92fc,"9.20Ξ ($12,605)","Feb 01, 2021",9.2,12605,2021-02-01
9293,Sold,11976269,PB,0.35Ξ ($48),"Mar 24, 2019",0.35,48,2019-03-24
9295,Sold,Cryptokk…,0x961d63,"28.50Ξ ($49,434)","Feb 22, 2021",28.5,49434,2021-02-22
9295,Sold,0x2bcbbd,Cryptokk…,0.50Ξ ($82),"Apr 13, 2019",0.5,82,2019-04-13
9298,Sold,MBK,gaus,"32Ξ ($11,265)","Oct 01, 2020",32,11265,2020-10-01
9298,Sold,Pranksy,MBK,"7.40Ξ ($2,690)","Sep 28, 2020",7.4,2690,2020-09-28
9298,Sold,shilpixe…,GoWest23,1.50Ξ ($320),"May 09, 2020",1.5,320,2020-05-09
9301,Sold,MadMax,0xa5c80b,"24.49Ξ ($43,450)","Feb 23, 2021",24.49,43450,2021-02-23
9301,Sold,0x13816f,MadMax,"23.50Ξ ($40,761)","Feb 22, 2021",23.5,40761,2021-02-22
9301,Sold,0xddfdcb,0x13816f,"19.74Ξ ($38,568)","Feb 21, 2021",19.74,38568,2021-02-21
9301,Sold,0x6f4a2d,0xddfdcb,"13.50Ξ ($24,670)","Feb 17, 2021",13.5,24670,2021-02-17
9303,Sold,6827056,10774949,0.35Ξ ($91),"Jul 01, 2017",0.35,91,2017-07-01
9304,Sold,Carlini8,0x778608,"19.99Ξ ($38,111)","Feb 21, 2021",19.99,38111,2021-02-21
9304,Sold,renaissa…,Carlini8,"14.95Ξ ($29,102)","Feb 21, 2021",14.95,29102,2021-02-21
9304,Sold,0x6f4a2d,renaissa…,"8.90Ξ ($15,215)","Feb 15, 2021",8.9,15215,2021-02-15
9305,Sold,13418499,0xcb802b,"23Ξ ($33,723)","Feb 26, 2021",23,33723,2021-02-26
9305,Sold,7293485,0xccc003,"15Ξ ($28,777)","Feb 18, 2021",15,28777,2021-02-18
9306,Sold,Carlini8,0xe5625a,"14.99Ξ ($28,577)","Feb 18, 2021",14.99,28577,2021-02-18
9306,Sold,0x6f4a2d,Carlini8,"8.00Ξ ($13,885)","Feb 09, 2021",8,13885,2021-02-09
9307,Sold,7293485,11420594,"8.99Ξ ($15,596)","Feb 16, 2021",8.99,15596,2021-02-16
9309,Sold,11976269,12800693,0.35Ξ ($30),"Dec 13, 2018",0.35,30,2018-12-13
9310,Sold,11004839,16488999,"34Ξ ($51,069)","Feb 27, 2021",34,51069,2021-02-27
9310,Sold,13275108,11004839,"12Ξ ($19,578)","Feb 03, 2021",12,19578,2021-02-03
9311,Sold,0x00d7c9,0x2e2e26,0.60Ξ ($85),"Dec 24, 2018",0.6,85,2018-12-24
9312,Sold,13275108,15615250,"13.99Ξ ($25,820)","Feb 17, 2021",13.99,25820,2021-02-17
9316,Sold,TokenAng…,monopoly…,"50Ξ ($95,376)","Feb 18, 2021",50,95376,2021-02-18
9316,Sold,TweetyPi…,TokenAng…,0.85Ξ ($191),"Feb 11, 2020",0.85,191,2020-02-11
9316,Sold,GtC,TweetyPi…,1Ξ ($150),"Jan 14, 2020",1,150,2020-01-14
9316,Sold,0x00d7c9,GtC,0.25Ξ ($45),"Sep 08, 2019",0.25,45,2019-09-08
9317,Sold,jmg,0x55afb7,0.69Ξ ($171),"Sep 21, 2018",0.69,171,2018-09-21
9317,Sold,0x8234be,0x00bd3a,0.70Ξ ($157),"Jul 12, 2017",0.7,157,2017-07-12
9318,Sold,zonted,0x562a01,"15Ξ ($28,777)","Feb 18, 2021",15,28777,2021-02-18
9318,Sold,Pixls,zonted,"4Ξ ($1,455)","Sep 13, 2020",4,1455,2020-09-13
9318,Sold,0x00d7c9,Pixls,0.30Ξ ($63),"Jul 17, 2019",0.3,63,2019-07-17
9319,Sold,0xd4442b,0x546149,"19.25Ξ ($40,432)","Apr 05, 2021",19.25,40432,2021-04-05
9319,Sold,0x691b87,0xd4442b,"18.30Ξ ($33,737)","Mar 30, 2021",18.3,33737,2021-03-30
9319,Sold,0x491be7,0xeb725f,"23.88Ξ ($42,325)","Feb 22, 2021",23.88,42325,2021-02-22
9319,Sold,Pranksy,0x491be7,"5.99Ξ ($2,133)","Sep 29, 2020",5.99,2133,2020-09-29
9319,Sold,scalynel…,Pranksy,"4Ξ ($1,431)","Sep 28, 2020",4,1431,2020-09-28
9322,Sold,0xc8301d,0xab61cc,"27Ξ ($57,303)","Apr 11, 2021",27,57303,2021-04-11
9322,Sold,heeee.et…,0xc8301d,"25Ξ ($51,902)","Apr 09, 2021",25,51902,2021-04-09
9322,Sold,0x67edd0,heeee.et…,"24.50Ξ ($44,915)","Mar 20, 2021",24.5,44915,2021-03-20
9322,Sold,0xc324b8,0x67edd0,"12.80Ξ ($24,505)","Feb 19, 2021",12.8,24505,2021-02-19
9322,Sold,CPyrc,0xc324b8,"8.88Ξ ($16,149)","Feb 14, 2021",8.88,16149,2021-02-14
9322,Sold,TweetyPi…,CPyrc,"5.60Ξ ($9,665)","Feb 10, 2021",5.6,9665,2021-02-10
9322,Sold,0xb6be4d,TweetyPi…,"5.39Ξ ($3,901)","Dec 30, 2020",5.39,3901,2020-12-30
9325,Sold,Pranksy,hellogar…,"50Ξ ($90,808)","Mar 12, 2021",50,90808,2021-03-12
9325,Sold,0x8bb4f3,Pranksy,"25Ξ ($38,352)","Feb 02, 2021",25,38352,2021-02-02
9326,Sold,5734076,14479911,"9.75Ξ ($17,035)","Feb 09, 2021",9.75,17035,2021-02-09
9329,Sold,55241,2652949,0.50Ξ ($500),"Jan 22, 2018",0.5,500,2018-01-22
9333,Sold,14966261,Tschuuul…,0.38Ξ ($41),"Feb 03, 2019",0.38,41,2019-02-03
9335,Sold,0x491be7,0x39ba31,"14.88Ξ ($29,041)","Feb 21, 2021",14.88,29041,2021-02-21
9335,Sold,Loopify,0x491be7,"5Ξ ($1,737)","Oct 03, 2020",5,1737,2020-10-03
9335,Sold,0x95c550,Loopify,"4.90Ξ ($1,690)","Oct 02, 2020",4.9,1690,2020-10-02
9335,Sold,0xe754d1,0x95c550,"5.99Ξ ($2,119)","Sep 29, 2020",5.99,2119,2020-09-29
9335,Sold,MrNFT,0xe754d1,"3.43Ξ ($1,234)","Sep 28, 2020",3.43,1234,2020-09-28
9335,Sold,0x3ba9cd,MrNFT,"3.10Ξ ($1,091)","Sep 27, 2020",3.1,1091,2020-09-27
9335,Sold,Carlini8,0x3ba9cd,2.40Ξ ($834),"Sep 24, 2020",2.4,834,2020-09-24
9335,Sold,0x11c9a7,Carlini8,1.77Ξ ($667),"Sep 14, 2020",1.77,667,2020-09-14
9335,Sold,Loopify,0x11c9a7,1.30Ξ ($493),"Sep 12, 2020",1.3,493,2020-09-12
9335,Sold,Pranksy,Loopify,1.25Ξ ($462),"Sep 11, 2020",1.25,462,2020-09-11
9335,Sold,Pixls,Pranksy,1.24Ξ ($451),"Sep 11, 2020",1.24,451,2020-09-11
9335,Sold,0x1a96af,Pixls,1.15Ξ ($269),"Jun 16, 2020",1.15,269,2020-06-16
9336,Sold,Hemba,0x717403,0.05Ξ ($13),"Jun 26, 2017",0.05,13,2017-06-26
9337,Sold,0xedfed1,0x42f7c5,"22Ξ ($37,926)","Mar 08, 2021",22,37926,2021-03-08
9337,Sold,0x9e199d,0xedfed1,"6Ξ ($8,893)","Feb 02, 2021",6,8893,2021-02-02
9337,Sold,CPyrc,0x9e199d,"5.49Ξ ($1,987)","Sep 28, 2020",5.49,1987,2020-09-28
9337,Sold,0x20e386,CPyrc,1.20Ξ ($465),"Sep 13, 2020",1.2,465,2020-09-13
9339,Sold,4042394,11844417,"75Ξ ($126,941)","Mar 23, 2021",75,126941,2021-03-23
9340,Sold,CryptoPa…,0xbb322d,"10Ξ ($21,224)","Apr 06, 2021",10,21224,2021-04-06
9340,Sold,0xece772,CryptoPa…,"19.48Ξ ($41,466)","Apr 06, 2021",19.48,41466,2021-04-06
9340,Sold,Deeze,0xece772,"22.99Ξ ($39,137)","Mar 27, 2021",22.99,39137,2021-03-27
9340,Sold,0x503b16,Deeze,"23.35Ξ ($42,556)","Mar 18, 2021",23.35,42556,2021-03-18
9340,Sold,0x1f5a39,0x503b16,"5.47Ξ ($4,011)","Jan 02, 2021",5.47,4011,2021-01-02
9340,Sold,0x09d57f,0x1f5a39,"4.56Ξ ($3,344)","Dec 30, 2020",4.56,3344,2020-12-30
9341,Sold,14966261,10430786,0.59Ξ ($60),"Dec 18, 2018",0.59,60,2018-12-18
9342,Sold,0x5b098b,0x2b8e9d,"4Ξ ($5,598)","Jan 20, 2021",4,5598,2021-01-20
9342,Sold,Hemba,0x5b098b,0.14Ξ ($15),"Dec 04, 2018",0.14,15,2018-12-04
9343,Sold,Hemba,0xcd2c66,1Ξ ($400),"Aug 04, 2020",1,400,2020-08-04
9345,Sold,Pranksy,patata.e…,1.99Ξ ($684),"Sep 22, 2020",1.99,684,2020-09-22
9345,Sold,Hemba,Pranksy,1.80Ξ ($607),"Sep 22, 2020",1.8,607,2020-09-22
9347,Sold,0x6029f5,0x584c7a,"5.22Ξ ($1,852)","Sep 27, 2020",5.22,1852,2020-09-27
9347,Sold,0x231707,0x6e5e91,2Ξ ($412),"May 27, 2020",2,412,2020-05-27
9348,Sold,0x5ad2d7,16525921,"21.90Ξ ($42,789)","Feb 21, 2021",21.9,42789,2021-02-21
9348,Sold,0x99b884,5952215,"17.50Ξ ($32,202)","Feb 17, 2021",17.5,32202,2021-02-17
9350,Sold,niwin,monopoly…,"11.90Ξ ($21,916)","Feb 12, 2021",11.9,21916,2021-02-12
9350,Sold,Deeze,niwin,"8.49Ξ ($11,189)","Feb 01, 2021",8.49,11189,2021-02-01
9350,Sold,redlione…,Deeze,"8Ξ ($4,900)","Dec 25, 2020",8,4900,2020-12-25
9350,Sold,satman,redlione…,"8.99Ξ ($3,371)","Oct 10, 2020",8.99,3371,2020-10-10
9350,Sold,PromETHe…,satman,"9Ξ ($3,135)","Oct 03, 2020",9,3135,2020-10-03
9350,Sold,CPyrc,PromETHe…,"8.50Ξ ($2,957)","Oct 03, 2020",8.5,2957,2020-10-03
9350,Sold,Pranksy,CPyrc,"7Ξ ($2,505)","Sep 29, 2020",7,2505,2020-09-29
9350,Sold,0x0a4eaf…,evkort,"4.90Ξ ($1,797)","Sep 14, 2020",4.9,1797,2020-09-14
9350,Sold,0x00d7c9,0x0a4eaf…,0.10Ξ ($30),"Oct 26, 2017",0.1,30,2017-10-26
9351,Sold,0x2e10fd,0xa5d0d5,"24Ξ ($41,798)","Mar 12, 2021",24,41798,2021-03-12
9351,Sold,afr,0x2e10fd,"19.87Ξ ($38,822)","Feb 21, 2021",19.87,38822,2021-02-21
9351,Sold,0x231707,afr,0.15Ξ ($30),"Oct 18, 2018",0.15,30,2018-10-18
9354,Sold,0x382681,965914,"18Ξ ($31,814)","Feb 17, 2021",18,31814,2021-02-17
9354,Sold,0x00d7c9,3679873,0.30Ξ ($63),"Aug 09, 2019",0.3,63,2019-08-09
9355,Sold,CPyrc,snax,1.40Ξ ($476),"Sep 06, 2020",1.4,476,2020-09-06
9355,Sold,0x1a96af,CPyrc,1.14Ξ ($252),"May 29, 2020",1.14,252,2020-05-29
9356,Sold,13275108,9399070,"10.50Ξ ($18,993)","Feb 14, 2021",10.5,18993,2021-02-14
9358,Sold,0x00d7c9,5404303,2Ξ ($437),"Jul 31, 2019",2,437,2019-07-31
9361,Sold,CPyrc,krybhara…,1.49Ξ ($592),"Aug 07, 2020",1.49,592,2020-08-07
9361,Sold,Pranksy,CPyrc,0.99Ξ ($226),"Jul 01, 2020",0.99,226,2020-07-01
9361,Sold,Deiv,Pranksy,0.98Ξ ($207),"May 19, 2020",0.98,207,2020-05-19
9361,Sold,7478,Deiv,0.70Ξ ($100),"Jan 10, 2020",0.7,100,2020-01-10
9361,Sold,ark1,7478,0.30Ξ ($38),"Dec 21, 2019",0.3,38,2019-12-21
9361,Sold,0x00d7c9,ark1,0.25Ξ ($47),"Sep 15, 2019",0.25,47,2019-09-15
9362,Sold,5331586,7503011,0.41Ξ ($78),"Jul 11, 2017",0.41,78,2017-07-11
9364,Sold,NeonNFT,flipper_,"4.30Ξ ($1,648)","Oct 19, 2020",4.3,1648,2020-10-19
9364,Sold,0x9ce03d,NeonNFT,"4.35Ξ ($1,596)","Oct 17, 2020",4.35,1596,2020-10-17
9364,Sold,Binksy,0x9ce03d,"3.52Ξ ($1,336)","Oct 15, 2020",3.52,1336,2020-10-15
9364,Sold,0xe4c479,Binksy,"3Ξ ($1,041)","Sep 25, 2020",3,1041,2020-09-25
9364,Sold,Hemba,0xe4c479,"2.75Ξ ($1,046)","Sep 20, 2020",2.75,1046,2020-09-20
9366,Sold,4042394,8211743,"29.99Ξ ($51,118)","Mar 23, 2021",29.99,51118,2021-03-23
9368,Sold,0x832179,0x7224a1,"88.55Ξ ($65,335)","Jan 01, 2021",88.55,65335,2021-01-01
9370,Sold,0xca8fe4,16740588,"17.25Ξ ($29,121)","Mar 28, 2021",17.25,29121,2021-03-28
9371,Sold,48442,7823584,0.27Ξ ($75),"Jul 03, 2017",0.27,75,2017-07-03
9371,Sold,5331586,48442,0.12Ξ ($35),"Jun 29, 2017",0.12,35,2017-06-29
9372,Sold,EliteCat…,0x954b4c,"8.89Ξ ($15,868)","Feb 15, 2021",8.89,15868,2021-02-15
9372,Sold,0xb6be4d,GoWest23,0.35Ξ ($61),"May 06, 2019",0.35,61,2019-05-06
9374,Sold,Hemba,7478,0.31Ξ ($37),"Jan 20, 2019",0.31,37,2019-01-20
9375,Sold,0xca8fe4,8940509,"21Ξ ($35,757)","Mar 27, 2021",21,35757,2021-03-27
9378,Sold,0x6f1724,0xd7227a,"23Ξ ($40,537)","Mar 21, 2021",23,40537,2021-03-21
9378,Sold,Hemba,0x6f1724,0.12Ξ ($35),"Aug 28, 2018",0.12,35,2018-08-28
9380,Sold,Hemba,0x6bf36c,0.11Ξ ($20),"Sep 11, 2018",0.11,20,2018-09-11
9381,Sold,gr8wxl,KennyB,"5.06Ξ ($2,356)","Nov 13, 2020",5.06,2356,2020-11-13
9381,Sold,0x00d7c9,gr8wxl,0.25Ξ ($75),"Sep 10, 2017",0.25,75,2017-09-10
9383,Sold,55241,16033653,0.10Ξ ($46),"Dec 03, 2017",0.1,46,2017-12-03
9384,Sold,0x067034,gaus,"2.87Ξ ($1,015)","Sep 26, 2020",2.87,1015,2020-09-26
9384,Sold,Hemba,0x067034,1.80Ξ ($613),"Sep 22, 2020",1.8,613,2020-09-22
9385,Sold,55241,3112815,1Ξ ($206),"Aug 10, 2019",1,206,2019-08-10
9387,Sold,0x58164b,7435267,0.05Ξ ($56),"Jan 07, 2018",0.05,56,2018-01-07
9390,Sold,0xdd23ab,0x5db286,"16Ξ ($32,713)","Apr 03, 2021",16,32713,2021-04-03
9390,Sold,wookie.e…,0xdd23ab,"25.50Ξ ($41,081)","Mar 24, 2021",25.5,41081,2021-03-24
9390,Sold,Carlini8,0x13816f,"4.50Ξ ($1,641)","Sep 28, 2020",4.5,1641,2020-09-28
9390,Sold,0x682c30,Carlini8,2.00Ξ ($729),"Sep 28, 2020",2,729,2020-09-28
9391,Sold,jordanly…,0xd5b171,"23.50Ξ ($38,016)","Feb 25, 2021",23.5,38016,2021-02-25
9391,Sold,0x0503ed,jordanly…,"23.50Ξ ($37,345)","Feb 24, 2021",23.5,37345,2021-02-24
9391,Sold,0x11f058,0x0503ed,"16Ξ ($24,644)","Feb 23, 2021",16,24644,2021-02-23
9391,Sold,EliteCat…,0x11f058,"9.17Ξ ($16,163)","Feb 15, 2021",9.17,16163,2021-02-15
9391,Sold,0xb6be4d,GoWest23,0.35Ξ ($61),"May 06, 2019",0.35,61,2019-05-06
9400,Sold,0xc5faf1,0x3fcac5,"69.69Ξ ($116,509)","Mar 24, 2021",69.69,116509,2021-03-24
9403,Sold,0x0503ed,0x1c699f,"19Ξ ($37,485)","Feb 21, 2021",19,37485,2021-02-21
9403,Sold,Tschuuul…,0x0503ed,"15Ξ ($29,012)","Feb 21, 2021",15,29012,2021-02-21
9403,Sold,ark1,Tschuuul…,0.25Ξ ($53),"Jul 29, 2019",0.25,53,2019-07-29
9404,Sold,Pranksy,ModestaJ,"3.49Ξ ($1,240)","Sep 26, 2020",3.49,1240,2020-09-26
9404,Sold,ross_VRO…,Pranksy,2.29Ξ ($792),"Sep 24, 2020",2.29,792,2020-09-24
9404,Sold,Tschuuul…,ross_VRO…,2.10Ξ ($717),"Sep 23, 2020",2.1,717,2020-09-23
9404,Sold,0x7fcfde,Tschuuul…,0.30Ξ ($35),"Jan 26, 2019",0.3,35,2019-01-26
9404,Sold,0xbc081c,0x7fcfde,0.15Ξ ($65),"Dec 10, 2017",0.15,65,2017-12-10
9405,Sold,13275108,4542973,"10Ξ ($17,091)","Feb 05, 2021",10,17091,2021-02-05
9407,Sold,0x13816f,0xd271db,"9.60Ξ ($17,467)","Feb 16, 2021",9.6,17467,2021-02-16
9407,Sold,GoWest23,0x13816f,"5.65Ξ ($1,992)","Sep 29, 2020",5.65,1992,2020-09-29
9407,Sold,0x0a4eaf…,GoWest23,0.45Ξ ($78),"May 06, 2019",0.45,78,2019-05-06
9407,Sold,0xca8131,0x0a4eaf…,0.40Ξ ($55),"Mar 28, 2019",0.4,55,2019-03-28
9407,Sold,0xb6be4d,0xca8131,0.35Ξ ($49),"Mar 27, 2019",0.35,49,2019-03-27
9408,Sold,MadMax,0xd69e74,"21.75Ξ ($41,197)","Feb 21, 2021",21.75,41197,2021-02-21
9408,Sold,0xe369a8,MadMax,"17.50Ξ ($34,541)","Feb 19, 2021",17.5,34541,2021-02-19
9408,Sold,0xb44969,0xe369a8,"14Ξ ($27,536)","Feb 19, 2021",14,27536,2021-02-19
9408,Sold,0xca8fe4,0xbf6ccf,"18Ξ ($20,007)","Jan 13, 2021",18,20007,2021-01-13
9409,Sold,5734076,11421942,"26.49Ξ ($54,992)","Apr 09, 2021",26.49,54992,2021-04-09
9410,Sold,Tschuuul…,j1mmy,"12Ξ ($4,142)","Sep 25, 2020",12,4142,2020-09-25
9410,Sold,ark1,Tschuuul…,0.49Ξ ($89),"Oct 13, 2019",0.49,89,2019-10-13
9410,Sold,0x00d7c9,ark1,0.25Ξ ($47),"Sep 15, 2019",0.25,47,2019-09-15
9411,Sold,Hemba,Pixls,0.30Ξ ($38),"Jan 11, 2019",0.3,38,2019-01-11
9414,Sold,0xca8fe4,5290127,"17.99Ξ ($34,746)","Apr 01, 2021",17.99,34746,2021-04-01
9415,Sold,0x8234be,7435267,0.05Ξ ($15),"Sep 29, 2017",0.05,15,2017-09-29
9417,Sold,Hemba,0x7e5280,0.25Ξ ($118),"Nov 26, 2017",0.25,118,2017-11-26
9417,Sold,0x682c30,Hemba,0.19Ξ ($56),"Jun 29, 2017",0.19,56,2017-06-29
9420,Sold,Pranksy,barthazi…,1.90Ξ ($716),"Sep 14, 2020",1.9,716,2020-09-14
9420,Sold,0x0553de,alxo,0.49Ξ ($84),"May 08, 2019",0.49,84,2019-05-08
9420,Sold,DjangoBi…,0x0553de,0.40Ξ ($50),"Jan 19, 2019",0.4,50,2019-01-19
9420,Sold,Punkofth…,0x9be1c7,0.30Ξ ($83),"Jul 03, 2017",0.3,83,2017-07-03
9421,Sold,shilpixe…,omarlitt…,"15.66Ξ ($33,138)","Apr 06, 2021",15.66,33138,2021-04-06
9423,Sold,16451452,14215174,0.30Ξ ($65),"Jul 21, 2017",0.3,65,2017-07-21
9425,Sold,Cyborg,7478,0.36Ξ ($42),"Jan 24, 2019",0.36,42,2019-01-24
9425,Sold,0xc00c2b,Cyborg,0.18Ξ ($54),"Aug 12, 2017",0.18,54,2017-08-12
9430,Sold,0x62bdc6,0x89eacd,"19.97Ξ ($43,387)","Apr 10, 2021",19.97,43387,2021-04-10
9430,Sold,poopie.e…,0x62bdc6,"19Ξ ($39,090)","Apr 08, 2021",19,39090,2021-04-08
9430,Sold,0xe45df5,Pranksy,0.60Ξ ($81),"Jan 04, 2020",0.6,81,2020-01-04
9434,Sold,0xdf2e9f,G4SP4RD,1Ξ ($214),"May 20, 2020",1,214,2020-05-20
9434,Sold,Pranksy,0xdf2e9f,0.30Ξ ($54),"Sep 13, 2019",0.3,54,2019-09-13
9434,Sold,ark1,Pranksy,0.25Ξ ($53),"Jul 29, 2019",0.25,53,2019-07-29
9435,Sold,14966261,7435267,0.29Ξ ($77),"Jul 05, 2017",0.29,77,2017-07-05
9436,Sold,EliteCat…,0x06dc1e,"16.50Ξ ($27,855)","Mar 28, 2021",16.5,27855,2021-03-28
9436,Sold,0xe45df5,GoWest23,0.49Ξ ($65),"Jan 04, 2020",0.49,65,2020-01-04
9437,Sold,55241,7435267,0.05Ξ ($28),"May 27, 2018",0.05,28,2018-05-27
9438,Sold,0xbe0c0d,0xaea8e3,"42Ξ ($75,477)","Mar 21, 2021",42,75477,2021-03-21
9438,Sold,heeee.et…,0xbe0c0d,"38Ξ ($73,351)","Mar 13, 2021",38,73351,2021-03-13
9438,Sold,0x62bdc6,heeee.et…,"38Ξ ($66,243)","Mar 13, 2021",38,66243,2021-03-13
9438,Sold,0x5f5df4,0x62bdc6,"36.50Ξ ($65,031)","Mar 11, 2021",36.5,65031,2021-03-11
9439,Sold,7047340,0x47163c,0.42Ξ ($97),"Jul 22, 2017",0.42,97,2017-07-22
9439,Sold,16745492,0x6b88ac,0.14Ξ ($38),"Jun 25, 2017",0.14,38,2017-06-25
9440,Sold,0xc272ed,12651287,"20Ξ ($40,032)","Feb 20, 2021",20,40032,2021-02-20
9441,Sold,TokenAng…,Gratitud…,2.50Ξ ($925),"Sep 15, 2020",2.5,925,2020-09-15
9441,Sold,0x00d7c9,TokenAng…,0.40Ξ ($115),"Jul 05, 2019",0.4,115,2019-07-05
9442,Sold,0x9cfd46,wookie.e…,"22.50Ξ ($40,043)","Mar 18, 2021",22.5,40043,2021-03-18
9442,Sold,0xc155f9,0x9cfd46,"14.65Ξ ($29,384)","Feb 20, 2021",14.65,29384,2021-02-20
9442,Sold,0x00ce50,0xc155f9,"12Ξ ($23,502)","Feb 19, 2021",12,23502,2021-02-19
9445,Sold,0xca8fe4,957165,"17.99Ξ ($36,798)","Apr 08, 2021",17.99,36798,2021-04-08
9447,Sold,Pranksy,tonyherr…,"6.66Ξ ($6,759)","Jan 13, 2021",6.66,6759,2021-01-13
9447,Sold,0x304288,2pac,"9.50Ξ ($6,167)","Dec 27, 2020",9.5,6167,2020-12-27
9447,Sold,0xdc24c4,0x45f672,"8.90Ξ ($3,291)","Oct 16, 2020",8.9,3291,2020-10-16
9447,Sold,0x401925,0xdc24c4,"8.50Ξ ($2,975)","Oct 09, 2020",8.5,2975,2020-10-09
9447,Sold,PM_disco…,0x401925,"7.90Ξ ($2,743)","Oct 03, 2020",7.9,2743,2020-10-03
9447,Sold,Thing,PM_disco…,"3.19Ξ ($1,138)","Sep 13, 2020",3.19,1138,2020-09-13
9447,Sold,Dude_Nak…,Thing,1.65Ξ ($365),"Feb 07, 2020",1.65,365,2020-02-07
9447,Sold,Hemba,Dude_Nak…,0.11Ξ ($20),"Sep 11, 2018",0.11,20,2018-09-11
9448,Sold,3699717,13590885,"4.99Ξ ($5,976)","Jan 06, 2021",4.99,5976,2021-01-06
9449,Sold,0xfc2a61,Carlini8,"18Ξ ($37,206)","Apr 08, 2021",18,37206,2021-04-08
9449,Sold,0x13816f,0x979a0c,"8.45Ξ ($15,523)","Feb 14, 2021",8.45,15523,2021-02-14
9449,Sold,0x491be7,0x13816f,"6.55Ξ ($2,441)","Oct 11, 2020",6.55,2441,2020-10-11
9449,Sold,Pranksy,0x491be7,"6Ξ ($2,113)","Oct 04, 2020",6,2113,2020-10-04
9449,Sold,KittyGr_…,Pranksy,"4.50Ξ ($1,583)","Oct 04, 2020",4.5,1583,2020-10-04
9449,Sold,0x00d7c9,KittyGr_…,0.10Ξ ($60),"Jun 08, 2018",0.1,60,2018-06-08
9450,Sold,0x62bdc6,0xa47093,"23.97Ξ ($43,190)","Mar 18, 2021",23.97,43190,2021-03-18
9450,Sold,0x0e4437,0x62bdc6,"22Ξ ($40,762)","Mar 15, 2021",22,40762,2021-03-15
9450,Sold,0x967ee5,0x29b1b2,"9Ξ ($14,302)","Feb 03, 2021",9,14302,2021-02-03
9450,Sold,zonted,0x967ee5,"7Ξ ($9,502)","Jan 31, 2021",7,9502,2021-01-31
9450,Sold,Pixls,zonted,1.90Ξ ($691),"Sep 13, 2020",1.9,691,2020-09-13
9450,Sold,0x00d7c9,Pixls,0.25Ξ ($53),"Aug 09, 2019",0.25,53,2019-08-09
9452,Sold,0x8234be,sov,0.25Ξ ($107),"Nov 29, 2017",0.25,107,2017-11-29
9453,Sold,Goop,0xc352b5,0.44Ξ ($57),"Dec 31, 2019",0.44,57,2019-12-31
9453,Sold,0x84,Goop,0.37Ξ ($50),"Dec 30, 2019",0.37,50,2019-12-30
9453,Sold,Hemba,0x84,0.30Ξ ($36),"Jan 18, 2019",0.3,36,2019-01-18
9454,Sold,6689278,Snowfro,0.69Ξ ($110),"Feb 23, 2019",0.69,110,2019-02-23
9455,Sold,TweetyPi…,0x4e0030,"14Ξ ($22,896)","Feb 04, 2021",14,22896,2021-02-04
9455,Sold,0xca8fe4,TweetyPi…,"10Ξ ($16,366)","Feb 04, 2021",10,16366,2021-02-04
9456,Sold,0xca8fe4,daidai.e…,"16.50Ξ ($35,001)","Apr 07, 2021",16.5,35001,2021-04-07
9458,Sold,Goop,Kornelij…,0.37Ξ ($49),"Dec 16, 2019",0.37,49,2019-12-16
9458,Sold,renaissa…,Goop,0.35Ξ ($51),"Dec 10, 2019",0.35,51,2019-12-10
9458,Sold,0xb6be4d,renaissa…,0.35Ξ ($61),"Apr 18, 2019",0.35,61,2019-04-18
9460,Sold,0x8234be,2652949,0.48Ξ ($552),"Jan 20, 2018",0.48,552,2018-01-20
9461,Sold,Pranksy,MrTpunks,5.55Ξ ($891),"Jan 16, 2020",5.55,891,2020-01-16
9461,Sold,Ambrose,Pranksy,2Ξ ($285),"Jan 06, 2020",2,285,2020-01-06
9461,Sold,0xf5099e,Ambrose,1.20Ξ ($206),"Apr 22, 2019",1.2,206,2019-04-22
9461,Sold,0x8234be,0xa0a59c,0.25Ξ ($57),"Jul 23, 2017",0.25,57,2017-07-23
9462,Sold,0x13816f,0x4885aa,"8.88Ξ ($15,181)","Feb 15, 2021",8.88,15181,2021-02-15
9462,Sold,GoWest23,0x13816f,"5.55Ξ ($1,957)","Sep 29, 2020",5.55,1957,2020-09-29
9462,Sold,Hemba,GoWest23,0.45Ξ ($78),"May 06, 2019",0.45,78,2019-05-06
9463,Sold,Dude_Nak…,0x052564,"3.95Ξ ($1,367)","Sep 24, 2020",3.95,1367,2020-09-24
9463,Sold,0x58164b,Dude_Nak…,0.06Ξ ($37),"Apr 22, 2018",0.06,37,2018-04-22
9464,Sold,Hemba,0xf4a775,0.10Ξ ($46),"Dec 03, 2017",0.1,46,2017-12-03
9465,Sold,0xd5fb85,Coopahtr…,1.10Ξ ($366),"Jul 31, 2020",1.1,366,2020-07-31
9465,Sold,0x91d6e2,0x67b404,1Ξ ($243),"Jun 23, 2020",1,243,2020-06-23
9465,Sold,0xe45df5,0x91d6e2,0.50Ξ ($117),"May 18, 2019",0.5,117,2019-05-18
9467,Sold,14479911,7715726,"52.50Ξ ($80,378)","Feb 23, 2021",52.5,80378,2021-02-23
9467,Sold,7293485,14479911,"10.50Ξ ($18,959)","Feb 13, 2021",10.5,18959,2021-02-13
9468,Sold,TweetyPi…,jmg,0.50Ξ ($64),"Dec 31, 2019",0.5,64,2019-12-31
9468,Sold,ark1,TweetyPi…,0.35Ξ ($43),"Dec 17, 2019",0.35,43,2019-12-17
9468,Sold,0x00d7c9,ark1,0.25Ξ ($47),"Sep 15, 2019",0.25,47,2019-09-15
9472,Sold,0xca8fe4,390123,"20Ξ ($34,181)","Mar 27, 2021",20,34181,2021-03-27
9477,Sold,Hemba,0x33f848,0.30Ξ ($35),"Jan 20, 2019",0.3,35,2019-01-20
9478,Sold,Cyborg,0x4136e3,0.45Ξ ($82),"Oct 13, 2019",0.45,82,2019-10-13
9479,Sold,16058782,9218204,0.75Ξ ($520),"Dec 14, 2017",0.75,520,2017-12-14
9479,Sold,2293507,10528156,0.40Ξ ($124),"Aug 11, 2017",0.4,124,2017-08-11
9481,Sold,5734076,15139826,"34.99Ξ ($75,081)","Apr 12, 2021",34.99,75081,2021-04-12
9490,Sold,itsfine,0x257e2b,"5Ξ ($1,701)","Oct 07, 2020",5,1701,2020-10-07
9490,Sold,0x51357b,itsfine,"3.75Ξ ($1,325)","Sep 26, 2020",3.75,1325,2020-09-26
9490,Sold,0x35cdf4,0x51357b,2Ξ ($753),"Sep 14, 2020",2,753,2020-09-14
9490,Sold,0xb6be4d,0x35cdf4,0.35Ξ ($132),"Aug 07, 2018",0.35,132,2018-08-07
9491,Sold,0xbfa319,Shrugs,0.29Ξ ($82),"Aug 15, 2018",0.29,82,2018-08-15
9491,Sold,0x00d7c9,0xbfa319,0.10Ξ ($38),"Nov 22, 2017",0.1,38,2017-11-22
9492,Sold,55241,7435267,0.05Ξ ($26),"May 28, 2018",0.05,26,2018-05-28
9493,Sold,0xaaaba0,jmg,"71.99Ξ ($134,613)","Mar 14, 2021",71.99,134613,2021-03-14
9493,Sold,0x577ebc,0xaaaba0,"44.99Ξ ($81,310)","Mar 12, 2021",44.99,81310,2021-03-12
9494,Sold,ddaavvee,0xda6bb8,"9.40Ξ ($16,323)","Feb 09, 2021",9.4,16323,2021-02-09
9495,Sold,0x5f18f9,0xe3bf86,"55Ξ ($101,923)","Mar 30, 2021",55,101923,2021-03-30
9496,Sold,tonyherr…,0x5fd36a,"40Ξ ($83,018)","Apr 09, 2021",40,83018,2021-04-09
9500,Sold,jmg,Kenney,0.19Ξ ($187),"Jan 23, 2018",0.19,187,2018-01-23
9500,Sold,0x58164b,jmg,0.06Ξ ($67),"Jan 07, 2018",0.06,67,2018-01-07
9502,Sold,2pac,district…,"5.99Ξ ($3,859)","Dec 27, 2020",5.99,3859,2020-12-27
9502,Sold,0x4960c4…,2pac,"5.95Ξ ($3,452)","Dec 24, 2020",5.95,3452,2020-12-24
9502,Sold,0x8234be,0x4960c4…,0.10Ξ ($38),"Apr 02, 2018",0.1,38,2018-04-02
9505,Sold,0x7f30d6,0x56fc4b,"21Ξ ($35,871)","Feb 22, 2021",21,35871,2021-02-22
9505,Sold,0x13816f,0x7f30d6,"9.50Ξ ($17,277)","Feb 17, 2021",9.5,17277,2021-02-17
9505,Sold,0x0601d0,0x257e2b,"4.75Ξ ($1,796)","Oct 15, 2020",4.75,1796,2020-10-15
9506,Sold,0x09d408,0xb73307,"30Ξ ($58,741)","Feb 21, 2021",30,58741,2021-02-21
9506,Sold,jesterbo…,0x09d408,"14Ξ ($19,321)","Jan 30, 2021",14,19321,2021-01-30
9507,Sold,0x565496,shilpixe…,"20Ξ ($35,361)","Mar 08, 2021",20,35361,2021-03-08
9507,Sold,0xf1b658,0x565496,"9.99Ξ ($17,503)","Feb 11, 2021",9.99,17503,2021-02-11
9507,Sold,0x087173,0x5b331e,"8.10Ξ ($14,089)","Feb 09, 2021",8.1,14089,2021-02-09
9507,Sold,CryptoIn…,0x087173,"3.89Ξ ($1,335)","Sep 25, 2020",3.89,1335,2020-09-25
9507,Sold,Pixls,CryptoIn…,1Ξ ($210),"May 20, 2020",1,210,2020-05-20
9507,Sold,jmg,Pixls,0.45Ξ ($61),"Dec 30, 2019",0.45,61,2019-12-30
9507,Sold,0x00d7c9,jmg,0.25Ξ ($44),"Sep 28, 2019",0.25,44,2019-09-28
9508,Sold,211855,2732466,"29.99Ξ ($55,576)","Mar 30, 2021",29.99,55576,2021-03-30
9508,Sold,13275108,211855,"27.68Ξ ($50,551)","Mar 19, 2021",27.68,50551,2021-03-19
9509,Sold,0x00d7c9,Punkofth…,0.30Ξ ($65),"Aug 01, 2019",0.3,65,2019-08-01
9510,Sold,0x1a96af,0x1f8add,2.53Ξ ($527),"May 22, 2020",2.53,527,2020-05-22
9511,Sold,0xca8fe4,beoga.et…,"35.50Ξ ($62,876)","Mar 12, 2021",35.5,62876,2021-03-12
9512,Sold,TweetyPi…,0x11c9a7,"4.20Ξ ($2,487)","Dec 13, 2020",4.2,2487,2020-12-13
9512,Sold,0x82f3d9,TweetyPi…,"2.50Ξ ($1,373)","Dec 11, 2020",2.5,1373,2020-12-11
9512,Sold,0x00d7c9,0x82f3d9,0.25Ξ ($340),"Jan 14, 2018",0.25,340,2018-01-14
9513,Sold,Pranksy,Novo311,1.24Ξ ($263),"May 07, 2020",1.24,263,2020-05-07
9513,Sold,0x1a96af,Pranksy,0.94Ξ ($160),"Apr 17, 2020",0.94,160,2020-04-17
9513,Sold,0x0bf913,0xe45df5,0.14Ξ ($39),"Jun 30, 2017",0.14,39,2017-06-30
9514,Sold,jmg,0x4c1bd9…,0.79Ξ ($193),"May 17, 2019",0.79,193,2019-05-17
9514,Sold,0x00d7c9,jmg,0.70Ξ ($116),"Apr 06, 2019",0.7,116,2019-04-06
9515,Sold,shilpixe…,0x1f8add,2.25Ξ ($438),"Apr 26, 2020",2.25,438,2020-04-26
9518,Sold,valko.et…,0x20eadf,"20Ξ ($38,621)","Feb 21, 2021",20,38621,2021-02-21
9518,Sold,0x5b098b,valko.et…,"5.98Ξ ($10,213)","Feb 08, 2021",5.98,10213,2021-02-08
9518,Sold,0x682c30,0x5b098b,0.25Ξ ($67),"Jul 04, 2017",0.25,67,2017-07-04
9519,Sold,Pranksy,gaus,2.75Ξ ($949),"Sep 25, 2020",2.75,949,2020-09-25
9519,Sold,Hemba,Pranksy,2.30Ξ ($796),"Sep 24, 2020",2.3,796,2020-09-24
9520,Sold,jmg,0x287b15,0.59Ξ ($605),"Jan 17, 2018",0.59,605,2018-01-17
9520,Sold,0x682c30,0x00bd3a,0.25Ξ ($69),"Jul 03, 2017",0.25,69,2017-07-03
9521,Sold,337252,alphab.e…,"21.30Ξ ($40,865)","Feb 22, 2021",21.3,40865,2021-02-22
9521,Sold,12322844,0xd8e806,0.30Ξ ($68),"Jul 18, 2017",0.3,68,2017-07-18
9523,Sold,0x470e9b,Kataster…,1Ξ ($142),"Jan 06, 2020",1,142,2020-01-06
9525,Sold,13275108,14843498,"29.99Ξ ($47,098)","Mar 03, 2021",29.99,47098,2021-03-03
9529,Sold,0x5f5df4,✨🚀🌙.et…,"23Ξ ($41,264)","Mar 10, 2021",23,41264,2021-03-10
9530,Sold,jmg,0x2db1c4,1.65Ξ ($216),"Dec 29, 2019",1.65,216,2019-12-29
9530,Sold,0x682c30,0x00bd3a,0.41Ξ ($101),"Jul 08, 2017",0.41,101,2017-07-08
9532,Sold,renaissa…,0xc4b9d2,"19.99Ξ ($41,398)","Apr 05, 2021",19.99,41398,2021-04-05
9532,Sold,0xca8fe4,renaissa…,"15.75Ξ ($31,565)","Apr 02, 2021",15.75,31565,2021-04-02
9535,Sold,Harvey-B…,223332,"5.45Ξ ($1,895)","Oct 03, 2020",5.45,1895,2020-10-03
9535,Sold,0x13816f,Harvey-B…,"5.50Ξ ($1,966)","Sep 29, 2020",5.5,1966,2020-09-29
9535,Sold,0xe754d1,0x13816f,"4.99Ξ ($1,769)","Sep 29, 2020",4.99,1769,2020-09-29
9535,Sold,NFTinTin,0xe754d1,"3.42Ξ ($1,226)","Sep 28, 2020",3.42,1226,2020-09-28
9535,Sold,0x1a96af,NFTinTin,0.53Ξ ($90),"Apr 17, 2020",0.53,90,2020-04-17
9536,Sold,0x5f5df4,0x694eda,"59.99Ξ ($105,316)","Mar 13, 2021",59.99,105316,2021-03-13
9537,Sold,3038415,beoga.et…,"38Ξ ($68,264)","Mar 16, 2021",38,68264,2021-03-16
9537,Sold,2299655,0x2e5ccf,"36Ξ ($68,634)","Feb 21, 2021",36,68634,2021-02-21
9538,Sold,4042394,284138,"22.50Ξ ($38,250)","Mar 23, 2021",22.5,38250,2021-03-23
9539,Sold,niwin,MrTpunks,"39.99Ξ ($78,133)","Feb 21, 2021",39.99,78133,2021-02-21
9539,Sold,0x48c85c,niwin,"34.99Ξ ($69,032)","Feb 21, 2021",34.99,69032,2021-02-21
9539,Sold,MrTpunks,0x48c85c,"35Ξ ($66,208)","Feb 18, 2021",35,66208,2021-02-18
9539,Sold,KittyGr_…,ManOverb…,"12Ξ ($4,221)","Oct 05, 2020",12,4221,2020-10-05
9539,Sold,jmg,KittyGr_…,0.69Ξ ($414),"Jun 08, 2018",0.69,414,2018-06-08
9539,Sold,0x8234be,jmg,0.15Ξ ($103),"Dec 15, 2017",0.15,103,2017-12-15
9540,Sold,0xca8fe4,11821764,"16.16Ξ ($31,186)","Apr 01, 2021",16.16,31186,2021-04-01
9541,Sold,55241,9876623,0.05Ξ ($28),"May 29, 2018",0.05,28,2018-05-29
9543,Sold,13275108,293222,"12.99Ξ ($23,625)","Feb 17, 2021",12.99,23625,2021-02-17
9544,Sold,13275108,12822463,"7.50Ξ ($7,557)","Jan 04, 2021",7.5,7557,2021-01-04
9545,Sold,Hemba,0x4ef1ab,0.10Ξ ($117),"Jan 29, 2018",0.1,117,2018-01-29
9546,Sold,sighduck…,0xab6ca2,"50Ξ ($88,591)","Mar 17, 2021",50,88591,2021-03-17
9546,Sold,0xded2cb,sighduck…,"20Ξ ($28,845)","Feb 28, 2021",20,28845,2021-02-28
9547,Sold,0x577ebc,13832667,"26.99Ξ ($48,569)","Mar 15, 2021",26.99,48569,2021-03-15
9548,Sold,Wilcox,0x289a0e,"23.00Ξ ($41,081)","Mar 13, 2021",23,41081,2021-03-13
9549,Sold,15808747,16745492,0.22Ξ ($57),"Jun 26, 2017",0.22,57,2017-06-26
9550,Sold,3769926,5786847,"25.99Ξ ($46,298)","Mar 21, 2021",25.99,46298,2021-03-21
9550,Sold,6471110,3769926,"24.99Ξ ($43,609)","Mar 16, 2021",24.99,43609,2021-03-16
9550,Sold,10913381,6471110,"24Ξ ($45,222)","Mar 15, 2021",24,45222,2021-03-15
9550,Sold,2299655,7207726,"24Ξ ($43,306)","Feb 14, 2021",24,43306,2021-02-14
9552,Sold,13275108,15025184,"24.99Ξ ($42,743)","Mar 23, 2021",24.99,42743,2021-03-23
9555,Sold,Goop,davey.et…,0.64Ξ ($113),"Jan 19, 2020",0.64,113,2020-01-19
9555,Sold,NFTinTin,Goop,0.54Ξ ($75),"Jan 08, 2020",0.54,75,2020-01-08
9555,Sold,juggerna…,NFTinTin,0.25Ξ ($40),"Oct 24, 2019",0.25,40,2019-10-24
9557,Sold,✨🚀🌙.et…,0x5cf962,"18Ξ ($32,772)","Mar 09, 2021",18,32772,2021-03-09
9560,Sold,55241,3623889,0.70Ξ ($172),"May 23, 2019",0.7,172,2019-05-23
9561,Sold,2pac,0x_NFT,"7Ξ ($8,554)","Jan 16, 2021",7,8554,2021-01-16
9561,Sold,0xdbc416,2pac,"12Ξ ($7,320)","Dec 25, 2020",12,7320,2020-12-25
9561,Sold,1h1,0xdbc416,1.25Ξ ($449),"Aug 01, 2020",1.25,449,2020-08-01
9561,Sold,TweetyPi…,hhhh,0.72Ξ ($103),"Jan 13, 2020",0.72,103,2020-01-13
9561,Sold,Pranksy,TweetyPi…,0.60Ξ ($79),"Jan 01, 2020",0.6,79,2020-01-01
9561,Sold,0x00d7c9,Pranksy,0.25Ξ ($45),"Sep 02, 2019",0.25,45,2019-09-02
9562,Sold,0x00d7c9,TokenAng…,0.50Ξ ($144),"Jul 06, 2019",0.5,144,2019-07-06
9563,Sold,Hemba,0x717403,0.31Ξ ($105),"Oct 14, 2017",0.31,105,2017-10-14
9564,Sold,EliteCat…,charley,"8.99Ξ ($16,492)","Feb 15, 2021",8.99,16492,2021-02-15
9564,Sold,Fearless…,GoWest23,0.50Ξ ($67),"Jan 04, 2020",0.5,67,2020-01-04
9564,Sold,Hemba,Fearless…,0.31Ξ ($36),"Jan 24, 2019",0.31,36,2019-01-24
9565,Sold,14549395,3405896,0.40Ξ ($81),"Oct 23, 2018",0.4,81,2018-10-23
9566,Sold,16451452,1342010,0.14Ξ ($65),"Dec 03, 2017",0.14,65,2017-12-03
9567,Sold,MadMax,0x584cdf,"7.20Ξ ($13,143)","Feb 14, 2021",7.2,13143,2021-02-14
9567,Sold,GoWest23,0x568cf5,"5.77Ξ ($2,065)","Sep 29, 2020",5.77,2065,2020-09-29
9567,Sold,0xb6be4d,GoWest23,0.35Ξ ($61),"May 06, 2019",0.35,61,2019-05-06
9571,Sold,0x6b88ac,10130264,0.40Ξ ($91),"Jul 23, 2017",0.4,91,2017-07-23
9571,Sold,0x5b098b,7047340,0.20Ξ ($57),"Jul 02, 2017",0.2,57,2017-07-02
9571,Sold,0x515a82,5966219,0.03Ξ ($9),"Jun 28, 2017",0.03,9,2017-06-28
9572,Sold,4042394,11446499,"35Ξ ($60,227)","Mar 24, 2021",35,60227,2021-03-24
9576,Sold,jmg,0x215fed,0.18Ξ ($92),"May 28, 2018",0.18,92,2018-05-28
9576,Sold,Hemba,jmg,0.06Ξ ($47),"May 06, 2018",0.06,47,2018-05-06
9577,Sold,0x0a4eaf…,0x6611fe,0.49Ξ ($93),"Jul 11, 2017",0.49,93,2017-07-11
9577,Sold,0x00d7c9,0x0a4eaf…,0.30Ξ ($62),"Jul 10, 2017",0.3,62,2017-07-10
9579,Sold,Hemba,Kenney,0.15Ξ ($57),"Apr 04, 2018",0.15,57,2018-04-04
9580,Sold,0x067034,0x13816f,"4.70Ξ ($1,682)","Sep 28, 2020",4.7,1682,2020-09-28
9580,Sold,Carlini8,0x067034,"6Ξ ($2,194)","Sep 15, 2020",6,2194,2020-09-15
9580,Sold,0xc00c2b,Carlini8,2.50Ξ ($940),"Sep 14, 2020",2.5,940,2020-09-14
9581,Sold,0xca8fe4,337252,"17Ξ ($32,687)","Apr 01, 2021",17,32687,2021-04-01
9588,Sold,Deeze,0x5ac996,"34.10Ξ ($52,869)","Mar 01, 2021",34.1,52869,2021-03-01
9588,Sold,0xca8fe4,Deeze,"33.99Ξ ($52,251)","Mar 01, 2021",33.99,52251,2021-03-01
9589,Sold,337252,10519471,"25Ξ ($42,132)","Feb 23, 2021",25,42132,2021-02-23
9589,Sold,12322844,14215174,0.30Ξ ($68),"Jul 20, 2017",0.3,68,2017-07-20
9591,Sold,0x00d7c9,10470148,0.33Ξ ($69),"Aug 09, 2019",0.33,69,2019-08-09
9594,Sold,4337580,2142092,"42Ξ ($65,720)","Feb 23, 2021",42,65720,2021-02-23
9594,Sold,393680,15066993,"11Ξ ($3,981)","Sep 28, 2020",11,3981,2020-09-28
9599,Sold,0x58164b,Kenney,0.08Ξ ($60),"May 07, 2018",0.08,60,2018-05-07
9601,Sold,1700403,15363428,"21.99Ξ ($39,198)","Mar 21, 2021",21.99,39198,2021-03-21
9604,Sold,55241,Kenney,0.10Ξ ($115),"Jan 20, 2018",0.1,115,2018-01-20
9605,Sold,55241,7823584,0.28Ξ ($58),"Jul 10, 2017",0.28,58,2017-07-10
9606,Sold,scalynel…,CryptoIn…,1.70Ξ ($342),"May 22, 2020",1.7,342,2020-05-22
9606,Sold,0x682c30,scalynel…,0.99Ξ ($142),"Jan 07, 2020",0.99,142,2020-01-07
9608,Sold,0x0dc533,0xa5c80b,"5Ξ ($6,317)","Jan 26, 2021",5,6317,2021-01-26
9608,Sold,Goop,0xb87461,0.37Ξ ($56),"Dec 08, 2019",0.37,56,2019-12-08
9608,Sold,ark1,Goop,0.35Ξ ($53),"Nov 23, 2019",0.35,53,2019-11-23
9608,Sold,0x00d7c9,ark1,0.25Ξ ($47),"Sep 15, 2019",0.25,47,2019-09-15
9610,Sold,12322844,5615543,0.15Ξ ($36),"Sep 22, 2018",0.15,36,2018-09-22
9611,Sold,0xe45df5,10361245,0.38Ξ ($32),"Dec 16, 2018",0.38,32,2018-12-16
9613,Sold,55241,snax,0.10Ξ ($115),"Jan 20, 2018",0.1,115,2018-01-20
9615,Sold,55241,7435267,0.05Ξ ($28),"May 30, 2018",0.05,28,2018-05-30
9617,Sold,0xeb725f,0x024bcb,"24Ξ ($47,780)","Feb 20, 2021",24,47780,2021-02-20
9617,Sold,0x13816f,0xeb725f,"16.75Ξ ($30,822)","Feb 17, 2021",16.75,30822,2021-02-17
9617,Sold,j1mmy,0x13816f,"4.70Ξ ($1,654)","Sep 27, 2020",4.7,1654,2020-09-27
9617,Sold,Pranksy,j1mmy,"3.88Ξ ($1,343)","Sep 24, 2020",3.88,1343,2020-09-24
9617,Sold,0x3ef1a5,evkort,2Ξ ($760),"Sep 14, 2020",2,760,2020-09-14
9617,Sold,Novo311,0x3ef1a5,1.29Ξ ($504),"Aug 25, 2020",1.29,504,2020-08-25
9617,Sold,Hemba,Novo311,0.75Ξ ($157),"Apr 29, 2020",0.75,157,2020-04-29
9618,Sold,jmg,Tschuuul…,0.52Ξ ($132),"May 30, 2019",0.52,132,2019-05-30
9618,Sold,0x00d7c9,jmg,0.10Ξ ($30),"Oct 27, 2017",0.1,30,2017-10-27
9619,Sold,Slacktid…,0xdc925a,0.30Ξ ($55),"Oct 31, 2019",0.3,55,2019-10-31
9619,Sold,0x682c30,0x976b59,0.49Ξ ($110),"Oct 02, 2018",0.49,110,2018-10-02
9622,Sold,0x7f3560,0x8e3934,"23.99Ξ ($45,984)","Feb 22, 2021",23.99,45984,2021-02-22
9622,Sold,0x0a4eaf…,0x7f3560,0.65Ξ ($115),"Jan 30, 2020",0.65,115,2020-01-30
9624,Sold,422151,5875017,"5.87Ξ ($7,790)","Jan 25, 2021",5.87,7790,2021-01-25
9625,Sold,0x0553de,qiwave,"10Ξ ($2,190)","Jun 28, 2020",10,2190,2020-06-28
9625,Sold,0x00d7c9,0x0553de,0.40Ξ ($84),"Aug 09, 2019",0.4,84,2019-08-09
9626,Sold,0x067107,11492316,1.23Ξ ($249),"May 25, 2020",1.23,249,2020-05-25
9627,Sold,0x0a4eaf…,0x67c79f,"8.45Ξ ($14,673)","Feb 09, 2021",8.45,14673,2021-02-09
9627,Sold,juggerna…,0x0a4eaf…,0.30Ξ ($56),"Nov 07, 2019",0.3,56,2019-11-07
9630,Sold,shilpixe…,snax,"3Ξ ($1,098)","Sep 14, 2020",3,1098,2020-09-14
9630,Sold,antunes_…,shilpixe…,1.20Ξ ($246),"May 22, 2020",1.2,246,2020-05-22
9630,Sold,0xe45df5,antunes_…,0.80Ξ ($115),"Jan 08, 2020",0.8,115,2020-01-08
9631,Sold,6666831,15851975,"23Ξ ($38,819)","Mar 27, 2021",23,38819,2021-03-27
9631,Sold,4042394,6666831,"22.99Ξ ($38,910)","Mar 23, 2021",22.99,38910,2021-03-23
9632,Sold,48442,na,0.38Ξ ($86),"Jul 24, 2017",0.38,86,2017-07-24
9632,Sold,12322844,0x00bd3a,0.30Ξ ($68),"Jul 18, 2017",0.3,68,2017-07-18
9633,Sold,Hemba,0xd978c9,0.30Ξ ($244),"Dec 19, 2017",0.3,244,2017-12-19
9633,Sold,0x682c30,Hemba,0.18Ξ ($54),"Jun 29, 2017",0.18,54,2017-06-29
9634,Sold,14966261,10361245,0.48Ξ ($41),"Dec 16, 2018",0.48,41,2018-12-16
9636,Sold,0xd8e806,sov,0.35Ξ ($103),"Aug 09, 2017",0.35,103,2017-08-09
9637,Sold,0xe754d1,0x59a549,"5.60Ξ ($7,376)","Jan 24, 2021",5.6,7376,2021-01-24
9637,Sold,Pranksy,0xe754d1,1.90Ξ ($716),"Sep 14, 2020",1.9,716,2020-09-14
9637,Sold,juggerna…,alxo,0.25Ξ ($38),"Nov 23, 2019",0.25,38,2019-11-23
9638,Sold,GrumpyMo…,0xf28820,"2.98Ξ ($1,047)","Sep 24, 2020",2.98,1047,2020-09-24
9638,Sold,0x1a96af,GrumpyMo…,1.71Ξ ($341),"May 26, 2020",1.71,341,2020-05-26
9639,Sold,0x3dae9a,8861528,"46Ξ ($76,511)","Mar 23, 2021",46,76511,2021-03-23
9641,Sold,7293485,7650826,"39.41Ξ ($72,736)","Feb 17, 2021",39.41,72736,2021-02-17
9643,Sold,0x577ebc,ross_VRO…,"17Ξ ($29,267)","Feb 05, 2021",17,29267,2021-02-05
9644,Sold,Dude_Nak…,0xeb9191,3.49Ξ ($700),"May 16, 2020",3.49,700,2020-05-16
9644,Sold,Thing,Dude_Nak…,1.60Ξ ($366),"Feb 09, 2020",1.6,366,2020-02-09
9644,Sold,Dude_Nak…,0xde7460,0.85Ξ ($160),"Nov 13, 2019",0.85,160,2019-11-13
9644,Sold,0x00d7c9,Dude_Nak…,0.35Ξ ($60),"Apr 21, 2019",0.35,60,2019-04-21
9645,Sold,0x00d7c9,CyrusOld,0.05Ξ ($29),"Jun 01, 2018",0.05,29,2018-06-01
9647,Sold,2pac,0x11c9a7,"3.30Ξ ($2,127)","Dec 18, 2020",3.3,2127,2020-12-18
9647,Sold,e_lo,2pac,"3.50Ξ ($2,124)","Nov 24, 2020",3.5,2124,2020-11-24
9651,Sold,55241,1044256,0.12Ξ ($103),"Jan 02, 2018",0.12,103,2018-01-02
9652,Sold,0x7f3aff,0xaea8e3,"41Ξ ($85,028)","Apr 09, 2021",41,85028,2021-04-09
9652,Sold,0xd3e2e7,0x7f3aff,"29Ξ ($55,286)","Feb 18, 2021",29,55286,2021-02-18
9652,Sold,TokenAng…,0xd3e2e7,"11Ξ ($17,056)","Feb 03, 2021",11,17056,2021-02-03
9652,Sold,0xe45df5,TokenAng…,1.60Ξ ($422),"Jun 14, 2019",1.6,422,2019-06-14
9654,Sold,0xca8fe4,0x34e801,"9.50Ξ ($9,572)","Jan 04, 2021",9.5,9572,2021-01-04
9655,Sold,renaissa…,0x35d3a2,"25Ξ ($44,579)","Feb 22, 2021",25,44579,2021-02-22
9655,Sold,davey.et…,renaissa…,"5Ξ ($1,756)","Sep 27, 2020",5,1756,2020-09-27
9655,Sold,Pixls,davey.et…,1Ξ ($166),"Jan 21, 2020",1,166,2020-01-21
9655,Sold,0x0af8cc,Pixls,0.22Ξ ($30),"Dec 29, 2018",0.22,30,2018-12-29
9655,Sold,0x00d7c9,0x0af8cc,0.05Ξ ($25),"Jun 12, 2018",0.05,25,2018-06-12
9656,Sold,0x95c550,0x568cf5,"4.90Ξ ($1,688)","Oct 02, 2020",4.9,1688,2020-10-02
9656,Sold,0xe754d1,0x95c550,"5.80Ξ ($2,052)","Sep 29, 2020",5.8,2052,2020-09-29
9656,Sold,MrNFT,0xe754d1,"3.43Ξ ($1,228)","Sep 28, 2020",3.43,1228,2020-09-28
9656,Sold,0x3ba9cd,MrNFT,"3.10Ξ ($1,091)","Sep 27, 2020",3.1,1091,2020-09-27
9656,Sold,Pranksy,0x3ba9cd,2.19Ξ ($742),"Sep 23, 2020",2.19,742,2020-09-23
9656,Sold,Hemba,Pranksy,1.80Ξ ($613),"Sep 22, 2020",1.8,613,2020-09-22
9657,Sold,0x8234be,sov,0.04Ξ ($17),"Dec 10, 2017",0.04,17,2017-12-10
9658,Sold,0x07c5ea,0xc41253,"15Ξ ($29,211)","Feb 20, 2021",15,29211,2021-02-20
9658,Sold,3van.eth,0x07c5ea,"14.98Ξ ($27,473)","Feb 17, 2021",14.98,27473,2021-02-17
9658,Sold,0xc69ae4,3van.eth,"12.66Ξ ($22,881)","Feb 15, 2021",12.66,22881,2021-02-15
9658,Sold,0x231707,0xc69ae4,2.56Ξ ($511),"May 26, 2020",2.56,511,2020-05-26
9659,Sold,14479911,Deeze,"33.99Ξ ($70,860)","Apr 09, 2021",33.99,70860,2021-04-09
9659,Sold,13275108,0xdcf227,"29Ξ ($51,786)","Mar 21, 2021",29,51786,2021-03-21
9660,Sold,0x62bdc6,11965420,"19.50Ξ ($40,652)","Apr 09, 2021",19.5,40652,2021-04-09
9660,Sold,0xabf107,6471110,"19Ξ ($39,090)","Apr 08, 2021",19,39090,2021-04-08
9660,Sold,0x4db1dd,11268359,"17.50Ξ ($36,173)","Apr 08, 2021",17.5,36173,2021-04-08
9660,Sold,0xca8fe4,5091805,"16.30Ξ ($31,482)","Apr 01, 2021",16.3,31482,2021-04-01
9661,Sold,12586027,6689278,0.48Ξ ($134),"Jul 03, 2017",0.48,134,2017-07-03
9662,Sold,Hemba,0x0c3195…,0.32Ξ ($46),"Feb 19, 2019",0.32,46,2019-02-19
9663,Sold,Deeze,0x29b1b2,"38.99Ξ ($57,355)","Mar 01, 2021",38.99,57355,2021-03-01
9663,Sold,0xca8fe4,Deeze,"25Ξ ($47,291)","Feb 18, 2021",25,47291,2021-02-18
9664,Sold,Hemba,0x03911f,0.08Ξ ($65),"May 05, 2018",0.08,65,2018-05-05
9665,Sold,0xddfdcb,0xd800fc,"23.99Ξ ($49,790)","Apr 09, 2021",23.99,49790,2021-04-09
9665,Sold,Pranksy,0xddfdcb,"17Ξ ($36,040)","Apr 05, 2021",17,36040,2021-04-05
9665,Sold,0xe50c4f,Pranksy,"23.30Ξ ($39,076)","Mar 07, 2021",23.3,39076,2021-03-07
9665,Sold,0x3fed8d,0xe50c4f,"25Ξ ($48,845)","Feb 21, 2021",25,48845,2021-02-21
9665,Sold,Michel_M…,0x3fed8d,"6.75Ξ ($2,424)","Sep 30, 2020",6.75,2424,2020-09-30
9665,Sold,jmg,Michel_M…,"2.99Ξ ($1,126)","Sep 14, 2020",2.99,1126,2020-09-14
9665,Sold,Cyborg,jmg,0.22Ξ ($49),"Oct 06, 2018",0.22,49,2018-10-06
9665,Sold,0x5b098b,Cyborg,0.24Ξ ($69),"Aug 15, 2017",0.24,69,2017-08-15
9666,Sold,0x5aaeb9,0x0154d2,"3Ξ ($1,082)","Sep 27, 2020",3,1082,2020-09-27
9666,Sold,0x067034,0x5aaeb9,"2.87Ξ ($1,019)","Sep 26, 2020",2.87,1019,2020-09-26
9666,Sold,Hemba,0x067034,1.80Ξ ($613),"Sep 22, 2020",1.8,613,2020-09-22
9667,Sold,Hemba,0xf40b3d,2.30Ξ ($790),"Sep 24, 2020",2.3,790,2020-09-24
9668,Sold,6689278,9224009,"34.50Ξ ($52,663)","Mar 01, 2021",34.5,52663,2021-03-01
9668,Sold,55241,6689278,0.41Ξ ($97),"Jul 09, 2017",0.41,97,2017-07-09
9669,Sold,2pac,0x43c751,"3.75Ξ ($1,721)","Nov 12, 2020",3.75,1721,2020-11-12
9669,Sold,Michel_M…,0x257e2b,"5.40Ξ ($2,027)","Oct 19, 2020",5.4,2027,2020-10-19
9669,Sold,Shrugs,Michel_M…,2Ξ ($741),"Sep 11, 2020",2,741,2020-09-11
9669,Sold,0x00d7c9,Shrugs,0.10Ξ ($136),"Jan 14, 2018",0.1,136,2018-01-14
9670,Sold,Pranksy,0xef784c,"29.99Ξ ($54,026)","Mar 11, 2021",29.99,54026,2021-03-11
9670,Sold,0x577ebc,Pranksy,"9Ξ ($14,475)","Feb 04, 2021",9,14475,2021-02-04
9671,Sold,0x4960c4…,0x727646,"22Ξ ($41,723)","Feb 18, 2021",22,41723,2021-02-18
9671,Sold,0x1a96af,0x4960c4…,1.55Ξ ($323),"May 24, 2020",1.55,323,2020-05-24
9671,Sold,0x682c30,0x677b43,0.25Ξ ($71),"Jul 02, 2017",0.25,71,2017-07-02
9672,Sold,16238729,4608588,"28.90Ξ ($51,340)","Mar 16, 2021",28.9,51340,2021-03-16
9672,Sold,6249972,16238729,"26.50Ξ ($44,543)","Mar 08, 2021",26.5,44543,2021-03-08
9673,Sold,13074342,0xe73b3d,"20Ξ ($32,356)","Mar 26, 2021",20,32356,2021-03-26
9673,Sold,5443629,0xc77fa6,"22.90Ξ ($38,405)","Mar 07, 2021",22.9,38405,2021-03-07
9673,Sold,5734076,0x53102d,"22.50Ξ ($31,851)","Feb 28, 2021",22.5,31851,2021-02-28
9674,Sold,Deeze,0x0e4437,"49.99Ξ ($90,281)","Mar 31, 2021",49.99,90281,2021-03-31
9674,Sold,0x287b15,Deeze,"34.50Ξ ($63,235)","Mar 30, 2021",34.5,63235,2021-03-30
9674,Sold,0x00d7c9,0x287b15,0.50Ξ ($523),"Jan 25, 2018",0.5,523,2018-01-25
9675,Sold,CPyrc,analemma…,"4.99Ξ ($5,461)","Jan 05, 2021",4.99,5461,2021-01-05
9675,Sold,moderats,CPyrc,"4Ξ ($4,176)","Jan 05, 2021",4,4176,2021-01-05
9675,Sold,CPyrc,moderats,2.49Ξ ($929),"Sep 14, 2020",2.49,929,2020-09-14
9675,Sold,Pranksy,CPyrc,1.25Ξ ($460),"Sep 11, 2020",1.25,460,2020-09-11
9675,Sold,Hemba,Pranksy,0.55Ξ ($74),"Jan 04, 2020",0.55,74,2020-01-04
9677,Sold,0x00d7c9,snowfro,0.05Ξ ($27),"Jun 11, 2018",0.05,27,2018-06-11
9678,Sold,0xf0f068…,MrTpunks,5.55Ξ ($891),"Jan 16, 2020",5.55,891,2020-01-16
9678,Sold,0x7c00c9…,0xf0f068…,3Ξ ($427),"Jan 07, 2020",3,427,2020-01-07
9678,Sold,jmg,0x7c00c9…,0.69Ξ ($95),"Dec 29, 2018",0.69,95,2018-12-29
9678,Sold,0x682c30,0x00bd3a,0.35Ξ ($93),"Jul 05, 2017",0.35,93,2017-07-05
9679,Sold,55241,7823584,0.05Ξ ($28),"May 30, 2018",0.05,28,2018-05-30
9681,Sold,0x3dae9a,2581191,"25Ξ ($51,597)","Apr 08, 2021",25,51597,2021-04-08
9683,Sold,Deeze,Michel_M…,"12.99Ξ ($17,130)","Feb 01, 2021",12.99,17130,2021-02-01
9683,Sold,0xdbc416,Deeze,"12.90Ξ ($10,489)","Jan 03, 2021",12.9,10489,2021-01-03
9683,Sold,OzzMan,0xdbc416,"5.30Ξ ($4,117)","Jan 02, 2021",5.3,4117,2021-01-02
9683,Sold,jmg,OzzMan,1.95Ξ ($416),"Feb 06, 2020",1.95,416,2020-02-06
9683,Sold,0x682c30,jmg,1.50Ξ ($251),"Jan 20, 2020",1.5,251,2020-01-20
9684,Sold,0x33b17a,0x655d17,"55.55Ξ ($99,907)","Mar 11, 2021",55.55,99907,2021-03-11
9684,Sold,dafky200…,0x33b17a,"45Ξ ($82,646)","Mar 09, 2021",45,82646,2021-03-09
9684,Sold,0x7c511d,dafky200…,0.20Ξ ($84),"Jun 28, 2018",0.2,84,2018-06-28
9686,Sold,0x23b50b,spencer,"29.95Ξ ($41,900)","Feb 28, 2021",29.95,41900,2021-02-28
9686,Sold,Bombard,0x48c85c,"10.44Ξ ($18,317)","Feb 16, 2021",10.44,18317,2021-02-16
9686,Sold,0x231707,Bombard,0.60Ξ ($84),"Jan 09, 2020",0.6,84,2020-01-09
9687,Sold,0x78f0a6,7278964,"23.95Ξ ($36,544)","Mar 04, 2021",23.95,36544,2021-03-04
9688,Sold,55241,7823584,0.05Ξ ($30),"Jun 01, 2018",0.05,30,2018-06-01
9689,Sold,0xca8fe4,14548427,"20.60Ξ ($37,904)","Mar 31, 2021",20.6,37904,2021-03-31
9690,Sold,0x07c5ea,0x2ba7f9,"8.40Ξ ($14,614)","Feb 17, 2021",8.4,14614,2021-02-17
9690,Sold,Neuroman…,0x07c5ea,"7.69Ξ ($13,905)","Feb 14, 2021",7.69,13905,2021-02-14
9690,Sold,0x0553de,Neuroman…,0.89Ξ ($219),"Jul 09, 2020",0.89,219,2020-07-09
9690,Sold,Shrugs,0x0553de,1.25Ξ ($254),"May 27, 2020",1.25,254,2020-05-27
9690,Sold,0xbc081c,Shrugs,0.15Ξ ($42),"Aug 15, 2018",0.15,42,2018-08-15
9691,Sold,Hemba,Pixls,0.29Ξ ($36),"Jan 19, 2019",0.29,36,2019-01-19
9692,Sold,Dude_Nak…,0xe5e771,"14.95Ξ ($5,411)","Sep 28, 2020",14.95,5411,2020-09-28
9692,Sold,futurema…,Dude_Nak…,1Ξ ($202),"May 22, 2020",1,202,2020-05-22
9692,Sold,0x00d7c9,futurema…,0.25Ξ ($52),"Aug 13, 2019",0.25,52,2019-08-13
9693,Sold,55241,WangXian…,0.50Ξ ($86),"May 10, 2019",0.5,86,2019-05-10
9695,Sold,55241,16033653,0.10Ξ ($47),"Dec 04, 2017",0.1,47,2017-12-04
9697,Sold,CPyrc,0x701f37,"27.50Ξ ($41,083)","Feb 27, 2021",27.5,41083,2021-02-27
9697,Sold,0x067034,CPyrc,"4.25Ξ ($1,521)","Sep 28, 2020",4.25,1521,2020-09-28
9697,Sold,Carlini8,0x067034,"4Ξ ($1,463)","Sep 15, 2020",4,1463,2020-09-15
9697,Sold,satman,Carlini8,1.20Ξ ($241),"May 26, 2020",1.2,241,2020-05-26
9697,Sold,_K_A_M_I…,satman,0.60Ξ ($80),"Apr 01, 2020",0.6,80,2020-04-01
9697,Sold,antunes_…,_K_A_M_I…,0.57Ξ ($136),"Feb 26, 2020",0.57,136,2020-02-26
9697,Sold,0x00d7c9,antunes_…,0.30Ξ ($52),"Sep 28, 2019",0.3,52,2019-09-28
9699,Sold,5772875,7435267,0.06Ξ ($52),"Jan 02, 2018",0.06,52,2018-01-02
9703,Sold,curating…,0x58164b,2.50Ξ ($509),"Jul 25, 2017",2.5,509,2017-07-25
9704,Sold,Cyborg,Cyrus,0.30Ξ ($32),"Feb 01, 2019",0.3,32,2019-02-01
9704,Sold,0xbc081c,Cyborg,0.30Ξ ($68),"Jul 24, 2017",0.3,68,2017-07-24
9705,Sold,1700403,942439,"17Ξ ($33,539)","Feb 21, 2021",17,33539,2021-02-21
9706,Sold,0x470e9b,trislit,0.20Ξ ($45),"Oct 02, 2018",0.2,45,2018-10-02
9707,Sold,heeee.et…,0x565496,"45Ξ ($78,408)","Mar 11, 2021",45,78408,2021-03-11
9707,Sold,0x007eb9,heeee.et…,"18.50Ξ ($34,143)","Feb 14, 2021",18.5,34143,2021-02-14
9708,Sold,0x44612f,0x23f707,"24.25Ξ ($43,015)","Mar 21, 2021",24.25,43015,2021-03-21
9708,Sold,0xeb725f,0x44612f,"21Ξ ($40,552)","Feb 22, 2021",21,40552,2021-02-22
9708,Sold,0xca1585,0xeb725f,"12Ξ ($22,227)","Feb 17, 2021",12,22227,2021-02-17
9708,Sold,Carlini8,0xca1585,"9Ξ ($16,550)","Feb 14, 2021",9,16550,2021-02-14
9708,Sold,niwin,Carlini8,"5Ξ ($3,213)","Dec 26, 2020",5,3213,2020-12-26
9708,Sold,Collin3,niwin,"4.90Ξ ($1,777)","Sep 28, 2020",4.9,1777,2020-09-28
9708,Sold,MrNFT,Collin3,2.12Ξ ($733),"Sep 21, 2020",2.12,733,2020-09-21
9708,Sold,Pranksy,MrNFT,1.78Ξ ($678),"Sep 20, 2020",1.78,678,2020-09-20
9708,Sold,ross_VRO…,evkort,1.98Ξ ($729),"Sep 15, 2020",1.98,729,2020-09-15
9708,Sold,0x3746e3,ross_VRO…,1Ξ ($202),"May 22, 2020",1,202,2020-05-22
9708,Sold,0xd8e806,0x3746e3,0.22Ξ ($65),"Sep 18, 2017",0.22,65,2017-09-18
9708,Sold,0xbc081c,0xd8e806,0.30Ξ ($58),"Jul 19, 2017",0.3,58,2017-07-19
9710,Sold,3371265,3016768,"25Ξ ($42,132)","Feb 23, 2021",25,42132,2021-02-23
9710,Sold,55241,3371265,0.50Ξ ($122),"May 22, 2019",0.5,122,2019-05-22
9713,Sold,EliteCat…,jmg,"18.95Ξ ($29,014)","Mar 05, 2021",18.95,29014,2021-03-05
9713,Sold,0x20e386,GoWest23,1.20Ξ ($465),"Sep 13, 2020",1.2,465,2020-09-13
9715,Sold,shilpixe…,VonMises,1.50Ξ ($280),"Apr 25, 2020",1.5,280,2020-04-25
9716,Sold,14966261,bibdieuf…,0.60Ξ ($102),"Jan 17, 2020",0.6,102,2020-01-17
9717,Sold,0x19ac60,0xa577ed,"6Ξ ($3,711)","Dec 23, 2020",6,3711,2020-12-23
9719,Sold,14215174,9876623,0.18Ξ ($55),"Aug 12, 2017",0.18,55,2017-08-12
9719,Sold,12322844,14215174,0.30Ξ ($68),"Jul 20, 2017",0.3,68,2017-07-20
9720,Sold,3699717,8238026,"5.04Ξ ($5,232)","Jan 05, 2021",5.04,5232,2021-01-05
9721,Sold,0x48db19,justinva…,"2.50Ξ ($1,385)","Dec 12, 2020",2.5,1385,2020-12-12
9722,Sold,0x68a7ac,0xeefec5,"50Ξ ($103,622)","Apr 09, 2021",50,103622,2021-04-09
9722,Sold,EliteCat…,0x68a7ac,"6.99Ξ ($8,964)","Jan 10, 2021",6.99,8964,2021-01-10
9722,Sold,0xf0f068…,GoWest23,2.22Ξ ($359),"Jan 16, 2020",2.22,359,2020-01-16
9722,Sold,0x61e7e7,0xf0f068…,1.25Ξ ($177),"Jan 06, 2020",1.25,177,2020-01-06
9722,Sold,0xfb077c,0x61e7e7,1Ξ ($272),"Jun 20, 2019",1,272,2019-06-20
9723,Sold,755965,11268359,"46Ξ ($96,204)","Apr 09, 2021",46,96204,2021-04-09
9724,Sold,juggerna…,0x002ca2,0.20Ξ ($70),"Sep 02, 2017",0.2,70,2017-09-02
9724,Sold,0x02751f,juggerna…,0.20Ξ ($39),"Jul 30, 2017",0.2,39,2017-07-30
9726,Sold,10831567,934967,"6.99Ξ ($12,414)","Feb 09, 2021",6.99,12414,2021-02-09
9726,Sold,13015780,10831567,"5.98Ξ ($4,406)","Dec 30, 2020",5.98,4406,2020-12-30
9726,Sold,1742511,13015780,1.19Ξ ($237),"May 26, 2020",1.19,237,2020-05-26
9730,Sold,0xc3edcb,alphab.e…,"19.20Ξ ($30,489)","Mar 25, 2021",19.2,30489,2021-03-25
9730,Sold,stazie,0xc3edcb,"22.22Ξ ($35,255)","Feb 25, 2021",22.22,35255,2021-02-25
9730,Sold,0x1a96af,stazie,0.92Ξ ($180),"Apr 28, 2020",0.92,180,2020-04-28
9731,Sold,1471195,11185056,"23.50Ξ ($41,970)","Mar 15, 2021",23.5,41970,2021-03-15
9732,Sold,55241,Kenney,0.10Ξ ($58),"May 25, 2018",0.1,58,2018-05-25
9735,Sold,13275108,15881823,"8.15Ξ ($13,966)","Feb 10, 2021",8.15,13966,2021-02-10
9740,Sold,barthazi…,0x70a78c,"21.99Ξ ($39,495)","Mar 16, 2021",21.99,39495,2021-03-16
9740,Sold,0x00ce50,0x6fec47,"13Ξ ($25,569)","Feb 19, 2021",13,25569,2021-02-19
9741,Sold,0x5b098b,337252,"44.80Ξ ($94,356)","Apr 12, 2021",44.8,94356,2021-04-12
9744,Sold,0x0e9aed,0xece772,"20.99Ξ ($43,505)","Apr 09, 2021",20.99,43505,2021-04-09
9744,Sold,0x62bdc6,0x0e9aed,"14.50Ξ ($30,241)","Apr 06, 2021",14.5,30241,2021-04-06
9744,Sold,SpacedPa…,gaus,"3.50Ξ ($1,252)","Sep 28, 2020",3.5,1252,2020-09-28
9744,Sold,Pranksy,SpacedPa…,1.25Ξ ($459),"Sep 11, 2020",1.25,459,2020-09-11
9744,Sold,Hemba,Pranksy,1.15Ξ ($419),"Sep 11, 2020",1.15,419,2020-09-11
9746,Sold,0x8bb4f3,Deepyr,0.50Ξ ($69),"Mar 15, 2019",0.5,69,2019-03-15
9749,Sold,0xba19ba,0x29b1b2,"98Ξ ($174,772)","Feb 22, 2021",98,174772,2021-02-22
9749,Sold,natealex,0xba19ba,"55.78Ξ ($102,722)","Feb 12, 2021",55.78,102722,2021-02-12
9749,Sold,0xca8fe4,natealex,"47Ξ ($81,573)","Feb 08, 2021",47,81573,2021-02-08
9750,Sold,13275108,15066993,"6Ξ ($7,577)","Jan 27, 2021",6,7577,2021-01-27
9751,Sold,Hemba,0x374bd1,0.98Ξ ($239),"May 22, 2019",0.98,239,2019-05-22
9752,Sold,13275108,6608994,"12.50Ξ ($22,856)","Feb 14, 2021",12.5,22856,2021-02-14
9753,Sold,0xce3ecc,0xbec69d,"23Ξ ($48,645)","Apr 10, 2021",23,48645,2021-04-10
9753,Sold,0x5aaeb9,gaus,2.50Ξ ($873),"Sep 25, 2020",2.5,873,2020-09-25
9753,Sold,0x694a69,0x5aaeb9,2.40Ξ ($830),"Sep 24, 2020",2.4,830,2020-09-24
9753,Sold,0x11c9a7,0x694a69,2.19Ξ ($703),"Sep 23, 2020",2.19,703,2020-09-23
9753,Sold,Pranksy,0x11c9a7,1.99Ξ ($674),"Sep 23, 2020",1.99,674,2020-09-23
9753,Sold,Hemba,Pranksy,1.80Ξ ($607),"Sep 22, 2020",1.8,607,2020-09-22
9754,Sold,11433761,15127209,"26.11Ξ ($46,388)","Mar 22, 2021",26.11,46388,2021-03-22
9754,Sold,6249972,11433761,"25.75Ξ ($46,275)","Mar 21, 2021",25.75,46275,2021-03-21
9755,Sold,Hemba,kris.sma…,0.31Ξ ($34),"Jan 30, 2019",0.31,34,2019-01-30
9759,Sold,12586027,gr8wxl,0.34Ξ ($76),"Aug 03, 2017",0.34,76,2017-08-03
9760,Sold,0xf2907a,9059630,"58Ξ ($122,011)","Apr 05, 2021",58,122011,2021-04-05
9760,Sold,0x1672db,11235664,"39Ξ ($67,798)","Mar 12, 2021",39,67798,2021-03-12
9763,Sold,0x2e10fd,7273398,"24.88Ξ ($48,026)","Mar 13, 2021",24.88,48026,2021-03-13
9763,Sold,0x336caf,3019005,"22.60Ξ ($43,359)","Feb 22, 2021",22.6,43359,2021-02-22
9763,Sold,0xca8fe4,3370159,"12.12Ξ ($21,434)","Feb 17, 2021",12.12,21434,2021-02-17
9764,Sold,Hemba,0x287b15,0.40Ξ ($460),"Jan 20, 2018",0.4,460,2018-01-20
9765,Sold,Hemba,0x98c488,0.72Ξ ($146),"May 17, 2020",0.72,146,2020-05-17
9766,Sold,0x3aac33,michael.…,"35Ξ ($61,990)","Mar 11, 2021",35,61990,2021-03-11
9767,Sold,6169937,942439,"16.50Ξ ($32,553)","Feb 21, 2021",16.5,32553,2021-02-21
9767,Sold,1742511,463782,0.61Ξ ($115),"May 11, 2020",0.61,115,2020-05-11
9768,Sold,0x07c5ea,0x32dd07,"8.65Ξ ($15,160)","Feb 17, 2021",8.65,15160,2021-02-17
9768,Sold,0x13816f,0x07c5ea,"8.22Ξ ($14,949)","Feb 14, 2021",8.22,14949,2021-02-14
9768,Sold,cryptosa…,0x13816f,"4.20Ξ ($1,505)","Sep 28, 2020",4.2,1505,2020-09-28
9768,Sold,Pranksy,cryptosa…,1.49Ξ ($307),"May 27, 2020",1.49,307,2020-05-27
9768,Sold,0x00d7c9,Pranksy,0.25Ξ ($53),"Aug 12, 2019",0.25,53,2019-08-12
9770,Sold,0x4e2a48,0x0e6167,"17.77Ξ ($35,059)","Feb 21, 2021",17.77,35059,2021-02-21
9770,Sold,Adidust,0x4e2a48,"12.50Ξ ($23,070)","Feb 17, 2021",12.5,23070,2021-02-17
9770,Sold,0x5aaeb9,gaus,2.60Ξ ($907),"Sep 25, 2020",2.6,907,2020-09-25
9770,Sold,0x0eee8c,0x5aaeb9,2.50Ξ ($865),"Sep 24, 2020",2.5,865,2020-09-24
9770,Sold,j1mmy,0x0eee8c,2.25Ξ ($757),"Sep 23, 2020",2.25,757,2020-09-23
9770,Sold,Pranksy,j1mmy,1.90Ξ ($716),"Sep 14, 2020",1.9,716,2020-09-14
9770,Sold,Alley,Pranksy,1.50Ξ ($580),"Sep 13, 2020",1.5,580,2020-09-13
9770,Sold,0x20e386,Alley,1.20Ξ ($465),"Sep 13, 2020",1.2,465,2020-09-13
9772,Sold,Hemba,0x89ba62,0.09Ξ ($111),"Jan 28, 2018",0.09,111,2018-01-28
9773,Sold,0x00d7c9,jmg,0.35Ξ ($61),"May 06, 2019",0.35,61,2019-05-06
9775,Sold,MrTpunks…,0x13816f,"7.50Ξ ($2,610)","Oct 04, 2020",7.5,2610,2020-10-04
9775,Sold,BitcoinG…,MrTpunks…,"6.80Ξ ($2,353)","Oct 03, 2020",6.8,2353,2020-10-03
9775,Sold,0xb60df4,BitcoinG…,"8Ξ ($2,815)","Sep 27, 2020",8,2815,2020-09-27
9775,Sold,BitcoinG…,0xb60df4,"6.50Ξ ($2,498)","Sep 20, 2020",6.5,2498,2020-09-20
9775,Sold,0xe96c3e,0x1f8add,1.74Ξ ($348),"May 21, 2020",1.74,348,2020-05-21
9775,Sold,0x000c1c…,el,0.50Ξ ($71),"Mar 31, 2019",0.5,71,2019-03-31
9776,Sold,0xf0f068…,0xa15084,0.66Ξ ($84),"Dec 24, 2019",0.66,84,2019-12-24
9776,Sold,ross_VRO…,GtC,0.35Ξ ($63),"Sep 02, 2019",0.35,63,2019-09-02
9776,Sold,0xc2ac3c,ross_VRO…,0.15Ξ ($21),"Dec 28, 2018",0.15,21,2018-12-28
9776,Sold,0x00d7c9,0x44f2d4,0.10Ξ ($40),"Aug 06, 2018",0.1,40,2018-08-06
9780,Sold,55241,9079261,0.10Ξ ($32),"Aug 17, 2018",0.1,32,2018-08-17
9781,Sold,0x304288,sumrtime…,"9Ξ ($15,620)","Feb 08, 2021",9,15620,2021-02-08
9781,Sold,Pranksy,PM_disco…,1.20Ξ ($273),"Jul 03, 2020",1.2,273,2020-07-03
9781,Sold,0x682c30,Pranksy,0.69Ξ ($92),"Jan 04, 2020",0.69,92,2020-01-04
9785,Sold,Cyborg,0x00b278,0.30Ξ ($83),"Jul 03, 2017",0.3,83,2017-07-03
9787,Sold,5966219,tonyherr…,"4.78Ξ ($6,330)","Jan 27, 2021",4.78,6330,2021-01-27
9787,Sold,2299655,0x5b098b,0.20Ξ ($42),"Sep 14, 2018",0.2,42,2018-09-14
9791,Sold,Michel_M…,0x75bb8e,"48Ξ ($72,212)","Mar 02, 2021",48,72212,2021-03-02
9791,Sold,Alex3422,Michel_M…,1.99Ξ ($479),"Jul 10, 2020",1.99,479,2020-07-10
9791,Sold,0x0553de,Alex3422,0.97Ξ ($134),"Jan 09, 2020",0.97,134,2020-01-09
9791,Sold,0x00d7c9,0x0553de,0.40Ξ ($84),"Aug 09, 2019",0.4,84,2019-08-09
9793,Sold,0xe5e771,0xe63b7f,"6Ξ ($8,056)","Jan 27, 2021",6,8056,2021-01-27
9793,Sold,0x1d45f1,0xe5e771,2.40Ξ ($820),"Sep 23, 2020",2.4,820,2020-09-23
9793,Sold,Pranksy,0x1d45f1,0.90Ξ ($352),"Aug 26, 2020",0.9,352,2020-08-26
9793,Sold,Shrugs,Pranksy,1.40Ξ ($299),"May 28, 2020",1.4,299,2020-05-28
9793,Sold,0x00d7c9,Shrugs,1Ξ ($281),"Aug 15, 2018",1,281,2018-08-15
9794,Sold,55241,Mr_0x,0.50Ξ ($82),"Apr 13, 2019",0.5,82,2019-04-13
9798,Sold,55241,8350887,0.10Ξ ($81),"Dec 19, 2017",0.1,81,2017-12-19
9799,Sold,0x58164b,Kenney,0.12Ξ ($90),"May 07, 2018",0.12,90,2018-05-07
9805,Sold,Kittypad,0x2b468e,"5.60Ξ ($1,890)","Oct 02, 2020",5.6,1890,2020-10-02
9805,Sold,jmg,Kittypad,"4.99Ξ ($1,838)","Oct 01, 2020",4.99,1838,2020-10-01
9805,Sold,Dude_Nak…,jmg,2.28Ξ ($876),"Sep 20, 2020",2.28,876,2020-09-20
9805,Sold,Pranksy,Dude_Nak…,2.22Ξ ($818),"Sep 15, 2020",2.22,818,2020-09-15
9805,Sold,0x313206,Pranksy,2Ξ ($746),"Sep 14, 2020",2,746,2020-09-14
9805,Sold,0x48db19,0x313206,1Ξ ($244),"Jun 23, 2020",1,244,2020-06-23
9806,Sold,55241,7503011,0.25Ξ ($51),"Jul 10, 2017",0.25,51,2017-07-10
9810,Sold,natealex,0x98c488,1.38Ξ ($285),"May 27, 2020",1.38,285,2020-05-27
9810,Sold,0x1a96af,natealex,0.59Ξ ($118),"May 14, 2020",0.59,118,2020-05-14
9812,Sold,shilpixe…,7478,1Ξ ($213),"May 19, 2020",1,213,2020-05-19
9814,Sold,5331586,45688,0.28Ξ ($77),"Jul 03, 2017",0.28,77,2017-07-03
9815,Sold,0xbc081c,0x00d7c9,0.30Ξ ($69),"Jul 22, 2017",0.3,69,2017-07-22
9817,Sold,14966261,10361245,0.29Ξ ($25),"Dec 16, 2018",0.29,25,2018-12-16
9821,Sold,0xca8fe4,5660938,"5.81Ξ ($9,923)","Feb 08, 2021",5.81,9923,2021-02-08
9828,Sold,Pranksy,MadMax,1.50Ξ ($300),"May 15, 2020",1.5,300,2020-05-15
9828,Sold,0x470e9b,Pranksy,1.20Ξ ($172),"Jan 13, 2020",1.2,172,2020-01-13
9833,Sold,Kittypad,ArtBlock…,2Ξ ($703),"Sep 09, 2020",2,703,2020-09-09
9833,Sold,0x00d7c9,Kittypad,0.30Ξ ($60),"Jul 16, 2019",0.3,60,2019-07-16
9834,Sold,0xef784c,9140665,"27.98Ξ ($49,280)","Mar 17, 2021",27.98,49280,2021-03-17
9834,Sold,0x16d1e7,15693900,"19Ξ ($34,330)","Mar 10, 2021",19,34330,2021-03-10
9834,Sold,0x167e00,1495527,"23Ξ ($42,059)","Feb 22, 2021",23,42059,2021-02-22
9834,Sold,0xb38071,1474048,"8.25Ξ ($10,638)","Jan 27, 2021",8.25,10638,2021-01-27
9836,Sold,EliteCat…,0x963331,"32.50Ξ ($54,771)","Feb 23, 2021",32.5,54771,2021-02-23
9836,Sold,0x00d7c9,GoWest23,0.50Ξ ($87),"May 06, 2019",0.5,87,2019-05-06
9839,Sold,13275108,magicdhz…,"29.99Ξ ($43,994)","Mar 05, 2021",29.99,43994,2021-03-05
9840,Sold,5734076,9233878,"15Ξ ($29,214)","Feb 18, 2021",15,29214,2021-02-18
9841,Sold,ross_VRO…,0xee4512,"7.81Ξ ($14,347)","Feb 14, 2021",7.81,14347,2021-02-14
9841,Sold,0xca8fe4,ross_VRO…,"6.50Ξ ($11,674)","Feb 13, 2021",6.5,11674,2021-02-13
9842,Sold,0xb73d34,5333848,"33Ξ ($71,115)","Apr 12, 2021",33,71115,2021-04-12
9842,Sold,0x3dae9a,12008756,"21.75Ξ ($37,220)","Mar 23, 2021",21.75,37220,2021-03-23
9843,Sold,shilpixe…,Dude_Nak…,1Ξ ($200),"May 15, 2020",1,200,2020-05-15
9844,Sold,0xb4bb41,3038415,"90Ξ ($151,549)","Mar 28, 2021",90,151549,2021-03-28
9844,Sold,0x3dae9a,11844417,"81Ξ ($139,383)","Mar 24, 2021",81,139383,2021-03-24
9846,Sold,Davicio,0x_NFT,"5Ξ ($1,704)","Oct 07, 2020",5,1704,2020-10-07
9846,Sold,scalynel…,Davicio,1.70Ξ ($349),"May 28, 2020",1.7,349,2020-05-28
9846,Sold,0x470e9b,scalynel…,0.85Ξ ($122),"Jan 07, 2020",0.85,122,2020-01-07
9847,Sold,0x860ba5,0x2e2dbd,"23.99Ξ ($45,050)","Feb 22, 2021",23.99,45050,2021-02-22
9847,Sold,0xbc081c,0x398646,0.15Ξ ($44),"Oct 25, 2017",0.15,44,2017-10-25
9848,Sold,0x3dae9a,14925702,"48Ξ ($81,242)","Mar 23, 2021",48,81242,2021-03-23
9849,Sold,0x5b098b,957165,"33.30Ξ ($71,610)","Apr 11, 2021",33.3,71610,2021-04-11
9850,Sold,55241,snax,0.10Ξ ($115),"Jan 20, 2018",0.1,115,2018-01-20
9851,Sold,0xca8fe4,5202882,"17.50Ξ ($33,648)","Apr 01, 2021",17.5,33648,2021-04-01
9853,Sold,0xca8fe4,jmg,"27.50Ξ ($49,376)","Mar 21, 2021",27.5,49376,2021-03-21
9855,Sold,Shrugs,0x5fdafa,1.45Ξ ($535),"Sep 11, 2020",1.45,535,2020-09-11
9855,Sold,Hemba,Shrugs,0.11Ξ ($31),"Aug 15, 2018",0.11,31,2018-08-15
9856,Sold,0x2e10fd,0x777975,"25.99Ξ ($55,172)","Apr 10, 2021",25.99,55172,2021-04-10
9856,Sold,0x2ab173,0x2e10fd,"22.25Ξ ($40,006)","Mar 11, 2021",22.25,40006,2021-03-11
9856,Sold,0xb1a875,0x2ab173,"17.40Ξ ($33,968)","Feb 21, 2021",17.4,33968,2021-02-21
9856,Sold,0x3e17fa,0xb1a875,"14Ξ ($27,876)","Feb 20, 2021",14,27876,2021-02-20
9856,Sold,TokenAng…,0x3e17fa,"5Ξ ($1,777)","Sep 26, 2020",5,1777,2020-09-26
9856,Sold,0xe1023c,TokenAng…,1.80Ξ ($664),"Sep 12, 2020",1.8,664,2020-09-12
9856,Sold,0xc2ac3c,0xe1023c,0.20Ξ ($28),"Dec 28, 2018",0.2,28,2018-12-28
9856,Sold,0x231707,0x0a4eaf…,0.29Ξ ($247),"Feb 10, 2018",0.29,247,2018-02-10
9859,Sold,0x067034,0x13816f,"4.70Ξ ($1,682)","Sep 28, 2020",4.7,1682,2020-09-28
9859,Sold,Carlini8,0x067034,"6Ξ ($2,270)","Sep 19, 2020",6,2270,2020-09-19
9859,Sold,Shrugs,Carlini8,2.50Ξ ($940),"Sep 14, 2020",2.5,940,2020-09-14
9859,Sold,Hemba,Shrugs,0.11Ξ ($31),"Aug 15, 2018",0.11,31,2018-08-15
9860,Sold,0x9ce03d,0x93db36,2.20Ξ ($845),"Sep 20, 2020",2.2,845,2020-09-20
9860,Sold,0x11c9a7,0x9ce03d,1.85Ξ ($700),"Sep 18, 2020",1.85,700,2020-09-18
9860,Sold,cryptosa…,0x11c9a7,1.87Ξ ($681),"Sep 15, 2020",1.87,681,2020-09-15
9860,Sold,0x1a96af,cryptosa…,1.41Ξ ($290),"May 27, 2020",1.41,290,2020-05-27
9861,Sold,jmg,Snowfro,0.99Ξ ($143),"Mar 29, 2019",0.99,143,2019-03-29
9861,Sold,0x00d7c9,jmg,0.10Ξ ($30),"Oct 27, 2017",0.1,30,2017-10-27
9862,Sold,Hemba,Shrugs,0.12Ξ ($34),"Aug 15, 2018",0.12,34,2018-08-15
9863,Sold,Hemba,0x287b15,0.25Ξ ($253),"Jan 18, 2018",0.25,253,2018-01-18
9863,Sold,0xf138eb,Hemba,0.20Ξ ($56),"Jun 30, 2017",0.2,56,2017-06-30
9864,Sold,Hemba,sov,0.16Ξ ($65),"Nov 23, 2017",0.16,65,2017-11-23
9865,Sold,0xb38071,7348023,"26Ξ ($47,374)","Feb 14, 2021",26,47374,2021-02-14
9870,Sold,55241,45688,0.40Ξ ($96),"Jul 07, 2017",0.4,96,2017-07-07
9871,Sold,0x1da533,0x5ea968,"14Ξ ($24,862)","Feb 17, 2021",14,24862,2021-02-17
9871,Sold,0x1a96af,DANNY,1.35Ξ ($292),"May 18, 2020",1.35,292,2020-05-18
9873,Sold,shilpixe…,stazie,0.49Ξ ($118),"Jun 04, 2019",0.49,118,2019-06-04
9874,Sold,VonMises,0xbec69d,"60Ξ ($109,468)","Mar 17, 2021",60,109468,2021-03-17
9874,Sold,Kcirtapc…,VonMises,"10Ξ ($3,870)","Sep 13, 2020",10,3870,2020-09-13
9874,Sold,0xf138eb,Kcirtapc…,0.20Ξ ($57),"Jun 27, 2017",0.2,57,2017-06-27
9875,Sold,Wanderer…,0x65f2a2,0.07Ξ ($42),"Jun 06, 2018",0.07,42,2018-06-06
9875,Sold,0x00d7c9,Wanderer…,0.10Ξ ($56),"May 30, 2018",0.1,56,2018-05-30
9876,Sold,0x3a04bb,16745492,0.51Ξ ($104),"Jul 13, 2017",0.51,104,2017-07-13
9878,Sold,11551919,TokenAng…,"10Ξ ($1,901)","May 10, 2020",10,1901,2020-05-10
9879,Sold,13074342,1967750,"24Ξ ($40,748)","Mar 27, 2021",24,40748,2021-03-27
9879,Sold,12743405,13074342,"26Ξ ($40,536)","Mar 02, 2021",26,40536,2021-03-02
9880,Sold,0x3d826e,district…,"4.50Ξ ($4,601)","Jan 04, 2021",4.5,4601,2021-01-04
9880,Sold,0x00d7c9,0x3d826e,0.10Ξ ($136),"Jan 14, 2018",0.1,136,2018-01-14
9881,Sold,ark1,0x0a4eaf…,0.40Ξ ($74),"Nov 08, 2019",0.4,74,2019-11-08
9881,Sold,0x00d7c9,ark1,0.25Ξ ($47),"Sep 15, 2019",0.25,47,2019-09-15
9884,Sold,0xf1b658,Zonked,"9.25Ξ ($16,913)","Feb 14, 2021",9.25,16913,2021-02-14
9884,Sold,EliteCat…,0x5b331e,"7.49Ξ ($11,998)","Feb 05, 2021",7.49,11998,2021-02-05
9884,Sold,0xe45df5,GoWest23,0.89Ξ ($144),"Jan 16, 2020",0.89,144,2020-01-16
9885,Sold,🤹🏻‍♂.e…,0xb565d5,"21.25Ξ ($45,697)","Apr 11, 2021",21.25,45697,2021-04-11
9885,Sold,0xabf107,🤹🏻‍♂.e…,"21Ξ ($43,632)","Apr 08, 2021",21,43632,2021-04-08
9885,Sold,0xca8fe4,0xabf107,"17.99Ξ ($37,186)","Apr 08, 2021",17.99,37186,2021-04-08
9886,Sold,0x067034,0x6cfe97,"3.15Ξ ($1,127)","Sep 28, 2020",3.15,1127,2020-09-28
9886,Sold,Carlini8,0x067034,"5.50Ξ ($2,080)","Sep 19, 2020",5.5,2080,2020-09-19
9886,Sold,Pranksy,Carlini8,1.88Ξ ($684),"Sep 15, 2020",1.88,684,2020-09-15
9886,Sold,Slush,Pranksy,2Ξ ($746),"Sep 14, 2020",2,746,2020-09-14
9886,Sold,0xbc081c,Slush,0.08Ξ ($59),"Dec 27, 2017",0.08,59,2017-12-27
9887,Sold,OpenNFT,0x13816f,"4Ξ ($1,433)","Sep 28, 2020",4,1433,2020-09-28
9887,Sold,Shrugs,OpenNFT,1.30Ξ ($262),"May 27, 2020",1.3,262,2020-05-27
9887,Sold,Hemba,Shrugs,0.12Ξ ($34),"Aug 15, 2018",0.12,34,2018-08-15
9888,Sold,0x58164b,Kenney,0.08Ξ ($60),"May 07, 2018",0.08,60,2018-05-07
9891,Sold,Wilcox,0x023ef7,"22.50Ξ ($39,326)","Mar 13, 2021",22.5,39326,2021-03-13
9895,Sold,0x1da533,0x75a285,"26Ξ ($47,685)","Mar 18, 2021",26,47685,2021-03-18
9895,Sold,Dude_Nak…,DANNY,1.45Ξ ($314),"May 18, 2020",1.45,314,2020-05-18
9895,Sold,0x58164b,Dude_Nak…,0.06Ξ ($42),"Apr 24, 2018",0.06,42,2018-04-24
9898,Sold,6827056,45688,0.41Ξ ($109),"Jul 05, 2017",0.41,109,2017-07-05
9899,Sold,0x58164b,Kenney,0.08Ξ ($56),"Apr 24, 2018",0.08,56,2018-04-24
9900,Sold,0x88c500,wookie.e…,"19Ξ ($33,933)","Mar 15, 2021",19,33933,2021-03-15
9901,Sold,0x88c500,0x50664e,"42Ξ ($86,815)","Apr 08, 2021",42,86815,2021-04-08
9902,Sold,0xb9fba8,0xcded7e,"20Ξ ($42,937)","Apr 11, 2021",20,42937,2021-04-11
9902,Sold,0x1f5f63,0xb9fba8,"19.50Ξ ($40,634)","Apr 09, 2021",19.5,40634,2021-04-09
9902,Sold,0x8e564e,0x1f5f63,"15.25Ξ ($30,897)","Apr 08, 2021",15.25,30897,2021-04-08
9902,Sold,0xdde0b7,0x8e564e,"14.75Ξ ($28,995)","Apr 07, 2021",14.75,28995,2021-04-07
9902,Sold,0x88c500,wookie.e…,"21Ξ ($37,624)","Mar 17, 2021",21,37624,2021-03-17
9904,Sold,curating…,0xcf6165,"5Ξ ($3,213)","Dec 26, 2020",5,3213,2020-12-26
9905,Sold,ddaavvee,MT1000,"3.50Ξ ($1,768)","Nov 27, 2020",3.5,1768,2020-11-27
9906,Sold,ddaavvee,0x28784d,0.50Ξ ($525),"Jan 16, 2018",0.5,525,2018-01-16
9907,Sold,0xd8e806,0x287b15,0.90Ξ ($922),"Jan 17, 2018",0.9,922,2018-01-17
9907,Sold,0x22160e,0xd8e806,1.75Ξ ($396),"Jul 20, 2017",1.75,396,2017-07-20
9907,Sold,Zieg,0x22160e,1.25Ξ ($237),"Jul 17, 2017",1.25,237,2017-07-17
9909,Sold,0x832179,trill,"50Ξ ($19,870)","Oct 28, 2020",50,19870,2020-10-28
9910,Sold,capital_…,0x6611fe,"25.99Ξ ($46,397)","Mar 15, 2021",25.99,46397,2021-03-15
9910,Sold,0xbcdb2b…,capital_…,2Ξ ($738),"Sep 12, 2020",2,738,2020-09-12
9910,Sold,PabloFM,0xbcdb2b…,0.55Ξ ($71),"Mar 22, 2020",0.55,71,2020-03-22
9910,Sold,Hemba,PabloFM,0.12Ξ ($26),"Sep 26, 2018",0.12,26,2018-09-26
9912,Sold,0xae7721,moonwhal…,"87Ξ ($153,873)","Mar 21, 2021",87,153873,2021-03-21
9912,Sold,0xb44969,0xae7721,"39.90Ξ ($76,110)","Feb 18, 2021",39.9,76110,2021-02-18
9912,Sold,kingskin…,0xbf6ccf,"22Ξ ($12,624)","Dec 24, 2020",22,12624,2020-12-24
9912,Sold,Alex3422,kingskin…,"4.99Ξ ($1,789)","Sep 14, 2020",4.99,1789,2020-09-14
9912,Sold,VonMises,Alex3422,3Ξ ($613),"May 25, 2020",3,613,2020-05-25
9912,Sold,shilpixe…,VonMises,1Ξ ($193),"Apr 27, 2020",1,193,2020-04-27
9913,Sold,0xec46dd,0x753b20,"14Ξ ($28,612)","Apr 05, 2021",14,28612,2021-04-05
9913,Sold,0x7f3560,0x177491,"3.34Ξ ($1,198)","Sep 28, 2020",3.34,1198,2020-09-28
9913,Sold,Hemba,0x7f3560,0.11Ξ ($25),"Oct 05, 2018",0.11,25,2018-10-05
9914,Sold,Hemba,0xf21e5f,0.10Ξ ($29),"Aug 27, 2018",0.1,29,2018-08-27
9915,Sold,Hemba,0x6bf36c,0.10Ξ ($19),"Sep 11, 2018",0.1,19,2018-09-11
9916,Sold,0x4960c4…,VonMises,"34Ξ ($11,435)","Sep 24, 2020",34,11435,2020-09-24
9916,Sold,Zieg,0x4960c4…,0.95Ξ ($284),"Aug 14, 2017",0.95,284,2017-08-14
9919,Sold,Hemba,Pixls,0.10Ξ ($38),"Aug 07, 2018",0.1,38,2018-08-07
9920,Sold,0xccc003,0x728f25,"32Ξ ($48,314)","Mar 02, 2021",32,48314,2021-03-02
9920,Sold,0x0503ed,0xccc003,"30Ξ ($44,610)","Feb 27, 2021",30,44610,2021-02-27
9920,Sold,0xadc229,0x0503ed,"20Ξ ($37,678)","Feb 18, 2021",20,37678,2021-02-18
9920,Sold,0x13816f,0xadc229,"9.25Ξ ($12,840)","Jan 30, 2021",9.25,12840,2021-01-30
9920,Sold,ETHERNAL,karbonba…,"5Ξ ($1,799)","Sep 28, 2020",5,1799,2020-09-28
9920,Sold,0x00d7c9,ETHERNAL,0.25Ξ ($77),"Sep 08, 2017",0.25,77,2017-09-08
9921,Sold,0x582fa7,PB,1Ξ ($136),"Mar 24, 2019",1,136,2019-03-24
9921,Sold,0x00bd3a,0x582fa7,0.79Ξ ($194),"Jul 08, 2017",0.79,194,2017-07-08
9921,Sold,0x5b098b,0x00bd3a,0.45Ξ ($121),"Jul 04, 2017",0.45,121,2017-07-04
9922,Sold,👨🏻‍🌾.…,0x4c9692,"15.40Ξ ($32,346)","Apr 05, 2021",15.4,32346,2021-04-05
9922,Sold,0x13816f,👨🏻‍🌾.…,"8.88Ξ ($16,061)","Feb 14, 2021",8.88,16061,2021-02-14
9922,Sold,0x11c9a7,0x13816f,"3.71Ξ ($1,323)","Sep 28, 2020",3.71,1323,2020-09-28
9922,Sold,CPyrc,0x11c9a7,"3.49Ξ ($1,254)","Sep 28, 2020",3.49,1254,2020-09-28
9922,Sold,0x3ba9cd,CPyrc,"3.15Ξ ($1,131)","Sep 27, 2020",3.15,1131,2020-09-27
9922,Sold,Michel_M…,0x3ba9cd,2.15Ξ ($729),"Sep 23, 2020",2.15,729,2020-09-23
9922,Sold,0x11c9a7,Michel_M…,1.98Ξ ($673),"Sep 23, 2020",1.98,673,2020-09-23
9922,Sold,Pranksy,0x11c9a7,1.88Ξ ($690),"Sep 15, 2020",1.88,690,2020-09-15
9922,Sold,CPyrc,Pranksy,1.75Ξ ($659),"Sep 14, 2020",1.75,659,2020-09-14
9922,Sold,0x20e386,CPyrc,1.20Ξ ($465),"Sep 13, 2020",1.2,465,2020-09-13
9923,Sold,0x3cc785,13531807,"7Ξ ($12,000)","Feb 08, 2021",7,12000,2021-02-08
9924,Sold,pinkiepi…,0x568cf5,"4Ξ ($2,507)","Dec 22, 2020",4,2507,2020-12-22
9924,Sold,0x087173,2pac,"3.30Ξ ($2,003)","Nov 24, 2020",3.3,2003,2020-11-24
9924,Sold,Dude_Nak…,0x087173,2.39Ξ ($810),"Sep 23, 2020",2.39,810,2020-09-23
9924,Sold,Carlini8,Dude_Nak…,2.49Ξ ($906),"Sep 15, 2020",2.49,906,2020-09-15
9924,Sold,NFTinTin,Carlini8,1.59Ξ ($598),"Sep 14, 2020",1.59,598,2020-09-14
9924,Sold,0x1a96af,NFTinTin,0.59Ξ ($101),"Apr 17, 2020",0.59,101,2020-04-17
9925,Sold,0x58164b,7435267,0.05Ξ ($56),"Jan 07, 2018",0.05,56,2018-01-07
9926,Sold,sov,DANNY,"50Ξ ($17,911)","Sep 29, 2020",50,17911,2020-09-29
9926,Sold,0x00bd3a,sov,1.50Ξ ($404),"Jul 04, 2017",1.5,404,2017-07-04
9926,Sold,0xe45df5,0x00bd3a,0.19Ξ ($53),"Jul 03, 2017",0.19,53,2017-07-03
9927,Sold,zaphod,0xb277e2,"30Ξ ($64,234)","Apr 11, 2021",30,64234,2021-04-11
9928,Sold,0x00d7c9,sov,0.10Ξ ($29),"Oct 28, 2017",0.1,29,2017-10-28
9929,Sold,0x5aaeb9,0x2de7bc,"3Ξ ($1,065)","Sep 26, 2020",3,1065,2020-09-26
9929,Sold,0x067034,0x5aaeb9,"2.87Ξ ($1,015)","Sep 26, 2020",2.87,1015,2020-09-26
9929,Sold,Carlini8,0x067034,"4Ξ ($1,513)","Sep 19, 2020",4,1513,2020-09-19
9929,Sold,natealex,Carlini8,1.44Ξ ($541),"Sep 14, 2020",1.44,541,2020-09-14
9929,Sold,Goop,natealex,0.60Ξ ($120),"May 14, 2020",0.6,120,2020-05-14
9929,Sold,0xe45df5,Goop,0.59Ξ ($100),"Jan 17, 2020",0.59,100,2020-01-17
9931,Sold,TokenAng…,jock,2.25Ξ ($537),"Jul 20, 2020",2.25,537,2020-07-20
9931,Sold,0x00d7c9,TokenAng…,0.40Ξ ($115),"Jul 05, 2019",0.4,115,2019-07-05
9933,Sold,ross_VRO…,Tschuuul…,2.31Ξ ($799),"Sep 24, 2020",2.31,799,2020-09-24
9933,Sold,Michel_M…,ross_VRO…,1.99Ξ ($680),"Sep 22, 2020",1.99,680,2020-09-22
9933,Sold,j1mmy,Michel_M…,1.90Ξ ($726),"Sep 18, 2020",1.9,726,2020-09-18
9933,Sold,0x4b9af5,Sylveste…,1.40Ξ ($510),"Sep 11, 2020",1.4,510,2020-09-11
9933,Sold,0x052564,0x4b9af5,2Ξ ($433),"May 28, 2020",2,433,2020-05-28
9933,Sold,0xbc081c,0xd8e806,0.30Ξ ($68),"Jul 20, 2017",0.3,68,2017-07-20
9934,Sold,2732466,11644366,"55Ξ ($94,230)","Feb 22, 2021",55,94230,2021-02-22
9934,Sold,13275108,2732466,"18.99Ξ ($24,372)","Jan 28, 2021",18.99,24372,2021-01-28
9935,Sold,0xa83fa9,0xb0dafc,"28Ξ ($50,579)","Mar 11, 2021",28,50579,2021-03-11
9935,Sold,point-gr…,0xa83fa9,"16.50Ξ ($32,032)","Feb 21, 2021",16.5,32032,2021-02-21
9935,Sold,ross_VRO…,point-gr…,"14Ξ ($27,239)","Feb 19, 2021",14,27239,2021-02-19
9935,Sold,0x00ce50,ross_VRO…,"12Ξ ($23,347)","Feb 19, 2021",12,23347,2021-02-19
9938,Sold,OnlyToas…,0x8ca440,"26Ξ ($41,478)","Feb 23, 2021",26,41478,2021-02-23
9938,Sold,Tschuuul…,OnlyToas…,"25Ξ ($47,920)","Feb 22, 2021",25,47920,2021-02-22
9938,Sold,antunes_…,Tschuuul…,0.54Ξ ($145),"Jun 19, 2019",0.54,145,2019-06-19
9938,Sold,0x8234be,Zieg,0.30Ξ ($50),"Apr 05, 2019",0.3,50,2019-04-05
9939,Sold,14966261,Juanito,0.39Ξ ($66),"Apr 14, 2019",0.39,66,2019-04-14
9943,Sold,Michel_M…,0xef784c,"75Ξ ($135,983)","Mar 10, 2021",75,135983,2021-03-10
9943,Sold,GoWest23,Michel_M…,"9.50Ξ ($3,453)","Sep 28, 2020",9.5,3453,2020-09-28
9943,Sold,antunes_…,GoWest23,0.50Ξ ($86),"Aug 31, 2019",0.5,86,2019-08-31
9947,Sold,0xf1b658,0x3e17fa,"10.95Ξ ($19,988)","Feb 14, 2021",10.95,19988,2021-02-14
9947,Sold,0xc155f9,0xf1b658,"8.88Ξ ($15,299)","Feb 11, 2021",8.88,15299,2021-02-11
9947,Sold,0xdc3689,0xc155f9,"5.50Ξ ($3,781)","Dec 27, 2020",5.5,3781,2020-12-27
9947,Sold,Loopify,99Zed,"5Ξ ($2,460)","Nov 26, 2020",5,2460,2020-11-26
9947,Sold,CPyrc,Loopify,"6.75Ξ ($2,464)","Sep 28, 2020",6.75,2464,2020-09-28
9947,Sold,0x682c30,CPyrc,2.00Ξ ($729),"Sep 28, 2020",2,729,2020-09-28
9948,Sold,Zieg,0xd27e3f,0.70Ξ ($144),"Jul 29, 2017",0.7,144,2017-07-29
9953,Sold,0x65ba4f,15925611,"98Ξ ($167,027)","Mar 23, 2021",98,167027,2021-03-23
9953,Sold,0x3dae9a,6666831,"88Ξ ($148,372)","Mar 23, 2021",88,148372,2021-03-23
9955,Sold,0x66c7a7,TokenAng…,"10Ξ ($1,274)","Jan 02, 2020",10,1274,2020-01-02
9958,Sold,0x6ec30f,9569308,"20Ξ ($35,741)","Mar 21, 2021",20,35741,2021-03-21
9958,Sold,0xca8fe4,7258895,"23.99Ξ ($43,606)","Mar 18, 2021",23.99,43606,2021-03-18
9961,Sold,0x682c30,45688,0.41Ξ ($109),"Jul 05, 2017",0.41,109,2017-07-05
9963,Sold,0x1dd533,9569308,"40Ξ ($58,211)","Feb 26, 2021",40,58211,2021-02-26
9963,Sold,0x5b098b,1955123,"11Ξ ($19,102)","Feb 09, 2021",11,19102,2021-02-09
9963,Sold,0x682c30,5966219,0.15Ξ ($46),"Jun 24, 2017",0.15,46,2017-06-24
9965,Sold,0xd4fa6e,7823584,0.29Ξ ($90),"Nov 12, 2017",0.29,90,2017-11-12
9966,Sold,2299655,BlackBox…,2.77Ξ ($572),"May 27, 2020",2.77,572,2020-05-27
9969,Sold,5966219,1002441,"29.30Ξ ($62,578)","Apr 11, 2021",29.3,62578,2021-04-11
9969,Sold,6827056,5966219,0.25Ξ ($66),"Jul 05, 2017",0.25,66,2017-07-05
9970,Sold,EliteCat…,0x8788ea,"9.75Ξ ($17,929)","Feb 14, 2021",9.75,17929,2021-02-14
9970,Sold,0x00d7c9,GoWest23,0.50Ξ ($87),"May 06, 2019",0.5,87,2019-05-06
9971,Sold,2299655,Tschuuul…,"24Ξ ($46,045)","Feb 22, 2021",24,46045,2021-02-22
9972,Sold,MBK,0x334560,"5.99Ξ ($7,439)","Jan 18, 2021",5.99,7439,2021-01-18
9972,Sold,shilpixe…,MBK,1Ξ ($203),"May 22, 2020",1,203,2020-05-22
9973,Sold,✨🚀🌙.et…,0xabf107,"15.85Ξ ($31,422)","Apr 08, 2021",15.85,31422,2021-04-08
9974,Sold,0xca8fe4,scalynel…,"10Ξ ($11,096)","Jan 06, 2021",10,11096,2021-01-06
9976,Sold,0x0553de,0x7c00c9…,1.50Ξ ($216),"Jan 10, 2020",1.5,216,2020-01-10
9976,Sold,Pixls,0x0553de,0.45Ξ ($56),"Jan 19, 2019",0.45,56,2019-01-19
9976,Sold,0xe45df5,Pixls,0.25Ξ ($22),"Dec 13, 2018",0.25,22,2018-12-13
9979,Sold,niwin,0xb166dd,"6.20Ξ ($7,744)","Jan 27, 2021",6.2,7744,2021-01-27
9979,Sold,pastelcr…,niwin,"5Ξ ($1,824)","Sep 28, 2020",5,1824,2020-09-28
9979,Sold,shilpixe…,pastelcr…,1Ξ ($214),"May 20, 2020",1,214,2020-05-20
9980,Sold,0x58164b,Kenney,0.10Ξ ($70),"Apr 24, 2018",0.1,70,2018-04-24
9989,Sold,Zieg,0x7760e0,0.30Ξ ($140),"Nov 28, 2017",0.3,140,2017-11-28
9990,Sold,13275108,14548427,"24.50Ξ ($44,981)","Mar 20, 2021",24.5,44981,2021-03-20
9997,Sold,3van.eth,0x0e4437,"99.99Ξ ($169,770)","Feb 08, 2021",99.99,169770,2021-02-08
9997,Sold,TJ2010,gaus,"59Ξ ($21,062)","Sep 27, 2020",59,21062,2020-09-27
9998,Sold,TokenAng…,0xcfd9cc,"38Ξ ($61,170)","Mar 03, 2021",38,61170,2021-03-03
9998,Sold,0x73e4a2,TokenAng…,"15Ξ ($9,499)","Dec 27, 2020",15,9499,2020-12-27
